254
Lattice="11.099 0.0 0.0 0.0 9.612 0.0 0.0 0.0 33.0" Properties=species:S:1:pos:R:3:REF_forces:R:3 system_type=Close0.75PtOH2 REF_energy=-253019.02164401405 al_round=6 source=cp2k_sp REF_stress="-0.022580694058355617 -0.00889730036663361 -0.005578381947505047 0.0006226992368682866 -0.0014884685080796154 0.0013602999159329895" _cp2k_dir=cp2k_sp_round6 orig_idx=44 dE_per_atom_meV=-13.35762834690207 F_rmse_meV_A=186.73911219417258 pbc="T T T"
Pt      11.06747900       9.25827800       0.00231000       0.21019387       0.25112224      -0.00170310
Pt       2.79683700       9.26279600       0.00198000      -0.24266845       0.07747814       0.22723926
Pt       5.51664700       9.26068100       0.00297000       0.35389798      -0.08082263       0.01756784
Pt       8.34711400       9.26097000       0.00231000      -0.23848732       0.17349754      -0.10030440
Pt       1.35818500       2.05168100       0.00132000      -0.08213338       0.07631446       0.14208843
Pt       4.19653200       2.05120100       0.00231000      -0.29530459      -0.22317948      -0.14896253
Pt       6.90923800       2.05293100       0.00000000       0.55376321       0.02058734       0.17782934
Pt       9.74403400       2.04850900       0.00132000      -0.29358298       0.06632727      -0.01861427
Pt      11.06747900       4.45227800       0.00231000       0.16358079      -0.01883847      -0.05924593
Pt       2.79683700       4.45689200       0.00198000      -0.28590926       0.33065109       0.39836881
Pt       5.51664700       4.45468100       0.00297000       0.39821660       0.41061755       0.13510634
Pt       8.34711400       4.45497000       0.00231000      -0.20181413       0.12043305      -0.17752183
Pt       1.35818500       6.85768100       0.00132000       0.25441582      -0.02397451      -0.40836732
Pt       4.19653200       6.85720100       0.00231000      -0.17348417       0.07493429      -0.03748257
Pt       6.90923800       6.85883500       0.00000000       0.24730260       0.02507134       0.06789924
Pt       9.74403400       6.85450900       0.00132000      -0.40516886       0.01519214       0.13177162
Pt       1.38193600       0.68821900       2.37237000       0.08672280      -0.34919132       0.18813020
Pt       4.16712000       0.69168000       2.37963000      -0.03789858      -0.24238820       0.13231875
Pt       6.93188000       0.68687400       2.37171000      -0.02521635      -0.27273802       0.35530489
Pt       9.71717500       0.69196800       2.37963000      -0.12317385      -0.33996723       0.41508304
Pt      11.09367200       3.09573700       2.37963000       0.17266862      -0.26092225       0.07491630
Pt       2.77919000       3.09045000       2.37105000      -0.13841843      -0.13353694       0.31809742
Pt       5.54550400       3.09429500       2.37963000       0.04742554      -0.33309364       0.05451356
Pt       8.32902300       3.08910500       2.37039000      -0.09836784      -0.24520767       0.06199702
Pt       1.38193600       5.49421900       2.37237000       0.01808411      -0.03891468       0.15344602
Pt       4.16712000       5.49768000       2.37963000      -0.02032200      -0.38293653       0.19804078
Pt       6.93188000       5.49287400       2.37171000       0.00746803      -0.16975401      -0.07274731
Pt       9.71717500       5.49806400       2.37963000       0.07859657      -0.10968738       0.03294715
Pt      11.09367200       7.90173700       2.37963000       0.08711207      -0.19491277       0.24723370
Pt       2.77919000       7.89645000       2.37105000       0.18032793      -0.15478454       0.25946238
Pt       5.54550400       7.90029500       2.37963000      -0.05999464      -0.14344803       0.43384695
Pt       8.32902300       7.89510500       2.37039000      -0.02615121      -0.08941886       0.02810473
Pt      11.11330600       1.47481900       4.71584100       0.14783639       0.02146151      -0.16574566
Pt       2.78297400       1.41740900       4.71094700       0.06206849       0.06133007      -0.34835674
Pt       5.54100000       1.41314300       4.77620200       0.04743274       0.00185634      -0.60475128
Pt       8.33684700       1.43363600       4.75855400       0.20782640      -0.11040318      -0.25999203
Pt       1.43806500       3.86659100       4.76203900       0.03703006       0.08165053       0.14843854
Pt       4.16640900       3.82533700       4.72330000      -0.19862185       0.32724386       0.13770315
Pt       6.95282600       3.82781900       4.68904600      -0.02794738       0.21296706      -0.07849836
Pt       9.73937000       3.88185900       4.65350400      -0.14568951       0.13735143       0.14638423
Pt      11.12943600       6.29046300       4.74671500      -0.02597380      -0.09247847      -0.68296424
Pt       2.84055700       6.20657600       4.71904600      -0.08485361      -0.06244233       0.26656891
Pt       5.56662200       6.21667600       4.69787800      -0.05578986       0.32416831       0.16027384
Pt       8.34398400       6.27314000       4.67629800       0.13536448       0.01063717       0.03445484
Pt       1.46379100       8.62092500       4.73946200      -0.10663445       0.17549015      -0.01294396
Pt       4.20990400       8.62714900       4.84067200      -0.04404249       0.19591293       0.15111660
Pt       6.94155400       8.67931900       4.70668500       0.08388996       0.05816093       0.11565440
Pt       9.75341600       8.67453700       4.73937300      -0.10101505       0.07162683      -0.69406729
Pt      11.30615900      -0.10345700       6.94889300       0.22646330      -0.89966454      -1.19174034
Pt       2.84952300      -0.22107000       7.18443000       0.36042910       0.53527389       0.37197129
Pt       5.54482600      -0.24382700       7.41360700       0.01962318       0.19515034      -0.44173972
Pt       8.29157900      -0.19669800       7.02077600      -0.11664685      -0.46898879      -0.15137937
Pt       1.35382700       2.34123600       7.02624600       0.03808267       0.29508296       0.42306014
Pt       4.07346400       2.20274700       6.94638400      -0.11558189       1.18085121       0.16488434
Pt       7.02575800       2.39654300       6.97816400      -0.93652337      -0.86445637       0.44610649
Pt       9.70977800       2.48499000       7.02286700       0.40145979       0.21600199       0.01290077
Pt      11.08096800       4.69333400       7.00518100       0.10373014       0.43869400      -0.36697307
Pt       0.63950900       5.12457500      16.04415700      -0.78437010      -0.14431860      -1.25898909
Pt       5.58252200       4.70143100       6.98603500       0.04306238      -0.66431243      -0.01656819
Pt       8.29789700       4.70497400       7.04998500       0.41809020       0.22811343      -0.44592651
Pt       1.58539100       6.87048400       6.97386600       0.56011281      -0.32300720      -0.93879622
Pt       4.28477400       7.05979700       7.24486400       0.20495499       0.14487807      -0.12402797
Pt       6.93355200       7.01649300       6.97711400      -0.48100099       0.28249073      -0.74136068
Pt       9.62756300       6.94458600       7.06949400      -0.10131433       0.09784745      -0.21466296
O        4.88538900      -0.41139800      11.07001600       1.31314836      -0.26673140      -0.11894953
O        8.37963400       8.48178100       8.84325800      -0.29854829      -0.17211069       0.48413105
O        4.16273800       3.11237400       8.81729800      -0.28021067      -0.24575994      -0.18273809
O        6.24099400       1.25525700       8.48448000       0.33208577       0.17294938       0.14405378
O        1.44259100       1.80892100       9.08137800       0.07102364       0.71651765      -0.50550823
O        5.16505100       4.05165500       8.86779000      -0.05236978       0.38397063       0.08332895
O        9.84938500       0.75151900       7.96978400      -0.67918935       0.83494679       1.23222442
O        2.00067500      10.42092600      12.62019300      -1.10532196      -0.45147546       0.18926252
O       11.19190100       7.79104500       8.01332000      -0.37016946       0.04989175       1.04156991
O        4.89610500       6.92023300       9.77473500      -0.62528308       0.26395153       0.50299986
O        2.02230600       0.62983400       9.24243900       0.42697645      -0.71017011      -0.24311839
O        6.01153800       7.45894400       9.94562700       1.42856519       0.39945587      -0.28816464
O        8.27363100       0.77455600      13.10572600      -0.07725651       0.07360915       0.71584094
H        7.76094900       1.13101200      12.34002400      -0.20604874       0.02616303      -0.17091924
H        9.13981100       0.37311700      12.77598800       0.25023366      -0.09960403      -0.20602354
O        2.90753400       5.76749400       8.17643000      -0.50851334       0.60938081       0.82931350
H        3.07989700       4.88950300       7.81474400      -0.23405165      -0.80360607      -0.41120273
H        3.90534600       7.87763600      15.93861900       0.27328463      -0.29446795      -0.26164730
O        4.01612300       6.99301600      15.54499300       0.17447250      -0.02665874      -0.00572688
H        2.33768900      10.25345900      11.71500400       0.34678322      -0.26351033       0.22063358
H        6.14247900       6.74447000      13.20422700       0.03830687      -0.07539092      -0.05523398
O       -0.52726900       9.23883200      12.41738400      -0.42556903       0.12540094       0.35240211
H       -0.61543000       8.47073100      11.75801400      -0.02546421      -0.13845392      -0.14061981
H        0.32771800       9.70124900      12.23917100       0.42811956       0.22384231       0.19052441
O        5.94830600       4.76264000      11.89794900      -0.04476137      -0.02545032      -0.03869973
H        5.13254900       4.96799900      11.40374900      -0.07179909      -0.00217618      -0.10732300
H        7.46072000       5.40380800      11.64212800       0.20260192      -0.01774113      -0.10994552
O       10.30870600       7.20838400      10.80255200      -0.16922025      -0.20910938       0.04332309
H       10.14338800       7.47974000       9.87488500       0.06635812       0.05841341       0.13235217
H        9.52664600       6.65253200      11.06391100       0.09741088       0.07914268      -0.16163498
O        6.50804200       2.03572600      11.22870600       0.12184562       0.13345466       0.08443709
H        6.13618600       3.81274200      11.67732300      -0.10374094       0.10692345      -0.10837612
H        6.47113200       1.85680000      10.24811100       0.01620669      -0.11681345      -0.01965763
S        2.10194900       2.77355300      12.34475100       0.53605911      -0.26787606       0.49067811
O        4.08801800       8.25406600      11.11407800      -2.31396679      -0.45048919       0.07051817
O        2.80834400       4.36051500      11.85300500      -0.18984050       0.17221199       0.09209589
O        2.87152400       2.34395500      14.84299000      -0.60040971      -1.08613227       3.31769726
H        5.69450400       1.61457200      11.56001600      -0.06067547      -0.09626931      -0.20051521
C        3.21660500       2.61395400      13.65035400      -0.28774966       0.38937920      -4.89203167
C        3.61658700       1.44908200      15.69749700      -0.85838085      -0.05890295      -1.76469530
O        4.29779600       2.27637300      16.56345500       0.07892670       0.14730211       0.39583216
F       -4.99001900       4.55504800      15.51759200       0.24556454      -0.02807233       0.79694485
F        4.51046900       2.69532400      13.41886500       1.44286052       1.03114614       0.38945634
F        2.67415200       0.68019600      16.28332600      -0.17440977      -0.07959982       0.26909013
F        4.44741500       0.63208100      15.01592300      -0.22244672       0.30479916       0.55763427
C        4.81230500       1.75192100      17.74698000       0.21767887       0.33853924       0.61702367
C        6.25099100       2.31479400      17.89045900       0.85630032      -0.29627030      -0.49794456
C        3.87543900       2.17631700      18.92621600      -0.50679070      -0.09860644      -0.30173955
O        4.35545700       1.72950800      20.12962700       0.72216740      -0.42542607      -0.68484063
F        7.00154700       1.92703200      16.82320100      -0.27136402       0.15812286       0.02075703
F        6.87819000       1.89035200      19.00703100      -0.15528282       0.33609360      -0.34324435
F        6.24935900       3.69146300      17.92565200      -0.08480373      -0.01091022       0.37138302
F        4.89997300       0.38467500      17.74697400      -0.34396375      -0.49134454      -0.02110824
F        2.64843900       1.66187900      18.66108100      -0.14877072      -0.23255836      -0.08197552
F        3.74059700       3.54497300      18.87289400       0.07706522       0.41025759      -0.02011837
C        3.85961600       2.12818100      21.40995700      -0.62687202       0.52009718       0.72683549
C        2.32875400       1.81398200      21.57222700      -0.11085621      -0.21195405       0.20133539
F        4.56242400       1.29990600      22.24991200       0.16660287      -0.16717571      -0.12410356
F        2.15245500       0.52167900      21.14496800      -0.08055781      -0.19332126      -0.26628506
F        1.57197300       2.64911100      20.79405200      -0.16465603      -0.00949303       0.04920372
C        1.71528500       1.88513700      23.01214000      -0.02988085       0.12581077       0.64758740
F        2.40210800       1.11230200      23.88109700      -0.15684399       0.16779226      -0.15684039
F        1.68437600       3.16574200      23.48695500       0.30219206      -0.31295676      -0.50641326
F        0.42138100       1.44286800      22.97144200       0.27064102      -0.27967177      -0.38363793
C        4.28115700       3.60203300      21.76349200       0.17599562       0.26735927       0.17366518
F        4.45931200       3.72726400      23.11373900      -0.28024924      -0.40970223      -0.17738865
F        3.36858400       4.53137400      21.38545700      -0.00107575      -0.06057108       0.17913957
F        5.45978100       3.89425100      21.17271600       0.21689057       0.25994678       0.16856719
O        2.70597200       4.93618700      16.21078300       0.91006620      -0.26876360      -0.11831138
H        3.18096400       4.78557600      17.05306500      -0.45607054       0.12251873      -0.17144631
H       -4.88681300       4.42407100      16.46056700      -0.10408752       0.20713374      -1.07669324
O        1.17232700       6.98726800      30.58002700       0.17109253      -0.14214551      -0.44015747
H        0.70179000       7.80284600      30.32694900       0.02894291      -0.00295368       0.24326597
H        1.96585600       6.94410700      29.97246500      -0.09051055       0.04101013       0.31262303
O        9.51844600       5.17940300      25.98276000       0.18798005       0.16611333      -0.31981286
H        9.67361400       4.95178500      26.92303900      -0.08188501       0.02546935       0.16321107
H       10.32356700       5.69214500      25.69659200      -0.21247547      -0.09684626       0.16729347
O        8.97865600       4.58328200      28.80300700      -0.13411904      -0.15797270      -0.14863086
H        8.55009400       3.71692700      28.56743300       0.05926188       0.13878867       0.13779468
H        9.53138800       4.38769800      29.57905500       0.03858455      -0.00209442       0.18092854
O        8.45058700       5.52331600      11.78242900      -0.24994004      -0.05616061       0.47296423
H       11.43113700       5.55633600      13.01045000       0.64694051       0.00456011       0.47689596
H        8.78377700       4.61147600      11.77461300       0.07446687       0.00652752      -0.17170034
O        7.08126600       7.75085000      22.49450800       0.03436382       0.11041501      -0.05467194
H        7.22583000       8.45015200      21.80383200       0.03626850      -0.18269026       0.11480953
H        7.43091100       6.87286200      22.17611800       0.03944998       0.03559333       0.03886274
O       10.81114500      -0.43118700      15.13923000      -0.06777017       0.18428178       0.38056649
H       11.73043300      -0.18769500      15.33632000      -0.06725698      -0.00848413      -0.20941431
H       -0.34305900      -0.53245700      14.14889800       0.06692376      -0.04913738      -0.38894109
O        4.48157100       6.21118800      26.37582800      -0.00895104      -0.09495290      -0.17398656
H        3.94711100       6.22095900      25.53007900       0.20615878       0.01208984       0.27021679
H        5.40661700       6.48889400      26.15106000      -0.01391224      -0.04291583       0.03251674
O        0.67822700       4.98168200      18.16908400      -0.17371968       0.01079555       1.87317889
H        0.64753000       4.04211700      18.45174100      -0.05690983       0.28384158      -0.11398781
H       11.06099400       5.46654000      18.76488500       0.46430733      -0.34078124      -0.34004642
O        4.02502300       2.29034100      30.90963800      -0.10284825      -0.16467814      -0.59939670
H        4.18114400       3.26230100      30.59917200      -0.00086492      -0.04114125       0.00570528
H        4.68568600       1.76626400      30.37438700      -0.04679151       0.04339611       0.23917740
O        2.58885900       7.07422200      19.38668800       0.14039613      -0.06965428      -0.06367903
H        2.12602400       6.26514100      19.09152200      -0.03770934       0.14227612      -0.06490596
H        1.93646100       7.80546000      19.21877400      -0.03530228      -0.16503758      -0.11903849
O        7.76036900       7.18262800      28.81936700       0.17416448       0.05681419      -0.32738528
H        8.44509200       7.90896800      28.73196500      -0.02028343      -0.14620168       0.12921954
H        8.20029100       6.32267600      29.02462600       0.03428772       0.00061809       0.10170051
O        5.30912300       7.78296800      19.55083300       0.06431769       0.10896850       0.04441478
H        4.95453200       8.69018000      19.58483300       0.05978175      -0.14420187       0.04117365
H        4.49906200       7.28037300      19.29302300      -0.14012050       0.07202689      -0.01792573
O        7.53494700       0.41954600      21.11257700       0.04301456       0.15746620      -0.07358601
H        6.73844400       0.72028800      20.63902800       0.17513585      -0.12845335       0.22793603
H        7.75088100       1.16895800      21.74341100       0.00564717       0.01650494       0.04411859
O        5.56317800       1.10918500      29.02580000      -0.00589914       0.28310213      -0.16088474
H        5.57365500       0.11992400      29.25391600       0.01185844      -0.13245502       0.15029025
H        4.90436200       1.24615000      28.32284700       0.00269400      -0.03693956       0.09306006
O        7.37841700       1.62985200      25.14685300       0.09176268       0.10519104      -0.23500759
H        6.41185900       1.68085500      25.03870800       0.07251283      -0.03242007       0.12804300
H        7.62900500       0.63799000      24.98856400      -0.06431049      -0.00950640       0.09205578
O        8.28205900       2.51145300      22.69721000       0.06156507      -0.17737476      -0.20903996
H        8.01326600       2.29652200      23.63805000      -0.00014398      -0.01878808       0.24489194
H        9.25582600       2.46282500      22.67927200      -0.09002924       0.03652869       0.10800485
O        2.95818800       6.18803200      24.13264600       0.04678534       0.01171240      -0.34656673
H        2.94007500       5.29639800      23.74292600      -0.02059145       0.18315666       0.12714672
H        3.45336000       6.76848100      23.45198000      -0.09503724      -0.13806054       0.17383384
O        7.90055700       2.12071700      27.91439300       0.13003407       0.09482332      -0.29007034
H        7.06485700       1.80448800      28.35407600      -0.06836615      -0.07379992       0.05622386
H        7.75034700       2.00501800      26.93626700       0.02371740       0.01787431       0.38730227
O        0.49539900       8.79505700      18.76012600       0.13279080       0.24264531       0.29992846
H       -0.06336700       8.30666900      18.11358700      -0.04593276      -0.10613977      -0.09045656
H       -0.07499300       9.56045300      19.05618000       0.14684600      -0.22860760      -0.09658093
O        7.25395600       6.70306200      26.18094400      -0.02616920      -0.03613891      -0.26635191
H        8.02990800       6.09298300      25.98584900      -0.04163439       0.01559888       0.12342736
H        7.37482700       6.91321600      27.14758900       0.06559605      -0.01631417       0.23681147
O        6.55763700       6.83192500      14.08698900      -0.00695226       0.06961417      -0.03136232
H        4.94741500       6.83030600      15.25411300      -0.23048605       0.34488729      -0.03181432
H        6.83613300       8.36357900      18.15635800       0.00799459      -0.15123487      -0.21868982
O        9.75911200       5.43002000      15.48904900      -0.76857376      -0.03229820       0.21157250
H        7.25549800       6.14421100      14.09728600      -0.07900229       0.09540336      -0.10616960
H        9.09168900       4.76443600      15.73831800       0.22124653       0.06993041       0.19323436
O        8.16315300       5.36154200      21.84297800      -0.14768932      -0.15803750      -0.04506887
H        8.02542700       4.43809700      22.14500500       0.09089210       0.06244182       0.04945055
H        8.76823600       5.32370200      21.07582800       0.02349011       0.01472162      -0.00911508
O        0.55296000       6.81415100      25.34258900       0.04333029       0.18824899      -0.13358785
H        0.18557600       7.56473200      24.84653100      -0.00646273      -0.07598793       0.03575016
H        1.39460400       6.58915400      24.86433400      -0.15285981       0.07520169       0.08704368
O        5.59084100       8.24474100      29.83440300       0.05284234       0.05347895      -0.28249484
H        6.41985300       7.75353000      29.53449800      -0.09727667       0.05512651       0.20074095
H        5.64823200       8.29317900      30.82574600      -0.06241970       0.02065264       0.18311655
O        9.74932900       7.60650200      16.95243400      -0.06125037       0.39921368       0.35006189
H        9.67724400       6.74179700      16.43792600       0.04361517      -0.25457420      -0.15250345
H       10.12962300       8.23064600      16.25129200       0.00910839      -0.00850778      -0.11048237
O        8.13945900       8.80696300      24.69736000       0.06718602       0.16256829      -0.17844743
H        7.78975400       8.44035900      23.83076100       0.06433363       0.05980181       0.29864291
H        7.82834500       8.10859900      25.34184500      -0.03778596      -0.10511390       0.16113825
O        4.63725000       4.51882100      29.87408200       0.19449214       0.06580636      -0.35621351
H        4.95488700       4.22890300      28.97061700      -0.08586765       0.06731611       0.32845074
H        4.07882600       5.31357500      29.67805600       0.01710298      -0.06645428       0.17015305
O        7.41577800      -0.88751900      17.45483400      -0.31445108       0.28486797       0.20997893
H        8.26822400       8.20094100      17.41067700       0.29985596      -0.11377441      -0.15782307
H        7.22805700      -0.40113900      15.89315100       0.05658227      -0.20084380      -0.29664619
O        9.59239500       3.07156100      17.51798800      -0.37988772      -0.34599698       0.38677776
H       10.18579100       3.51105000      16.86317100       0.36515890       0.06708883      -0.17991964
H        8.95578500       2.55430800      16.99297200       0.33745937      -0.00921741      -0.07157489
O        3.41728300       6.84293000      28.96529100      -0.13096635      -0.10535507      -0.23477053
H        3.60285500       6.70135600      28.00325900      -0.03139420       0.06978334       0.30202185
H        4.16536200       7.41636000      29.28871600       0.06653707      -0.00233250       0.11017692
O        5.27233000       3.83033200      27.35849700      -0.01030344       0.01469848      -0.51355064
H        4.92982700       4.65700200      26.89982700       0.09580651      -0.16224176       0.17155996
H        6.23428300       3.83699900      27.20408500      -0.05708672       0.04328041       0.10053888
O        9.96281700       1.18064500      19.67624000       0.02984485       0.09300658       0.05040494
H        9.85220100       1.88186300      18.99706800      -0.01368444       0.02389532      -0.14659454
H        9.05631400       0.89604400      19.93185300       0.15860160      -0.02094472       0.00613568
O       10.89463300       7.80595100      21.71347300      -0.05767448       0.20795084       0.01193300
H       10.18850800       8.22438800      22.23930400      -0.00248523      -0.10912225      -0.05119067
H       11.36320800       8.54156000      21.27453000      -0.06865566      -0.08993051      -0.05471205
O        9.37896300      -0.30954500      28.33822300       0.15091451       0.11197721      -0.18830247
H        9.88451700      -0.39791500      27.51177200      -0.06980700      -0.00262047       0.12385930
H        8.90797300       0.56043600      28.25899300       0.06157895      -0.03567509       0.05205147
O        7.05206900       9.20540800      14.89253700      -0.33608486      -0.03931268       0.38014432
H        7.64086500       0.15550800      14.13532900       0.38065597       0.26315089      -0.53581383
H        6.91529400       8.23936300      14.59041300       0.06677464      -0.03732265      -0.23883133
O       10.10359100       6.12179500      19.76206100      -0.20782948       0.16215126       0.26600944
H       10.47452900       6.71701400      20.49328200      -0.08538274      -0.07385494      -0.25223912
H        9.60385200       6.73326500      19.18667300       0.09885224       0.01863844      -0.10207743
O       11.46242700       4.93037200      13.77789100      -0.19942043      -0.13513256      -0.85326693
H        3.15883300       5.75102500      15.79727800       0.02315947      -0.04157474       0.32670856
H       10.49927500       4.85605500      14.00309800       0.02527035       0.18001169       0.14650918
O        4.34947500       7.68302400      22.51399900       0.13300369       0.18132449      -0.15312566
H        4.27757300       7.54094800      21.55030000      -0.06045487      -0.03511870       0.07269538
H        5.33552300       7.69263600      22.66027500       0.00674503      -0.05919554      -0.04856043
H        2.59507700       4.25621300      10.90158300       0.35960943       0.36884226      -0.09582759
H        7.43480500       8.35928000       9.10984100       0.27827000      -0.14677401       0.11112566
82
Lattice="11.099 0.0 0.0 0.0 9.612 0.0 0.0 0.0 33.0" Properties=species:S:1:pos:R:3:REF_forces:R:3 system_type=Dry1.0PtOH2 REF_energy=-216309.441415229 al_round=6 source=cp2k_sp REF_stress="-0.023429227625223252 -0.009323673560327308 -0.005046005944866376 0.0016759027667794589 -0.0012228134927038264 -0.00035149113557288343" _cp2k_dir=cp2k_sp_round6 orig_idx=93 dE_per_atom_meV=-27.336540844549834 F_rmse_meV_A=136.84270159423124 pbc="T T T"
Pt      11.06747900       9.25827800       0.00231000       0.23094833       0.13178447       0.03011585
Pt       2.79683700       9.26279600       0.00198000      -0.22064489       0.09610219       0.11448249
Pt       5.51664700       9.26068100       0.00297000       0.29092754       0.07412131       0.04360128
Pt       8.34711400       9.26097000       0.00231000      -0.18741441       0.08120161       0.06142366
Pt       1.35818500       2.05168100       0.00132000       0.16025173      -0.00873198      -0.00692141
Pt       4.19653200       2.05120100       0.00231000      -0.26737315       0.01515511       0.06628819
Pt       6.90923800       2.05293100       0.00000000       0.25736076       0.03552442       0.02573572
Pt       9.74403400       2.04850900       0.00132000      -0.23028241      -0.00167996       0.04078901
Pt      11.06747900       4.45227800       0.00231000       0.20677739       0.09520950       0.12298410
Pt       2.79683700       4.45689200       0.00198000      -0.19337628       0.09795750       0.00840185
Pt       5.51664700       4.45468100       0.00297000       0.25007940       0.05975707       0.04585666
Pt       8.34711400       4.45497000       0.00231000      -0.19623689       0.06014531       0.03216347
Pt       1.35818500       6.85768100       0.00132000       0.22279690       0.06152342       0.07280696
Pt       4.19653200       6.85720100       0.00231000      -0.26508641       0.08948674      -0.10000461
Pt       6.90923800       6.85883500       0.00000000       0.15630971       0.06878884       0.07124579
Pt       9.74403400       6.85450900       0.00132000      -0.18565166       0.05047590      -0.04320893
Pt       1.38193600       0.68821900       2.37237000       0.15978842      -0.11663348       0.14115666
Pt       4.16712000       0.69168000       2.37963000      -0.07360658      -0.22294757       0.36700444
Pt       6.93188000       0.68687400       2.37171000      -0.11066389      -0.16570607      -0.13294404
Pt       9.71717500       0.69196800       2.37963000      -0.05415464      -0.26699880       0.01741665
Pt      11.09367200       3.09573700       2.37963000       0.03824876      -0.19458984       0.00002160
Pt       2.77919000       3.09045000       2.37105000      -0.15476345      -0.28611392      -0.02721307
Pt       5.54550400       3.09429500       2.37963000       0.12420332      -0.24528737       0.13576506
Pt       8.32902300       3.08910500       2.37039000      -0.06757991      -0.10546974       0.00387311
Pt       1.38193600       5.49421900       2.37237000       0.08536063      -0.26189927       0.08371153
Pt       4.16712000       5.49768000       2.37963000      -0.20479507      -0.27659827      -0.03393137
Pt       6.93188000       5.49287400       2.37171000       0.10283128      -0.21036819       0.09372135
Pt       9.71717500       5.49806400       2.37963000      -0.15360851      -0.20511543       0.03331173
Pt      11.09367200       7.90173700       2.37963000      -0.01823941      -0.20498944       0.02465482
Pt       2.77919000       7.89645000       2.37105000      -0.07420873      -0.18815540      -0.12924422
Pt       5.54550400       7.90029500       2.37963000       0.04498505      -0.17513019      -0.09378459
Pt       8.32902300       7.89510500       2.37039000      -0.08409873      -0.21562044       0.18007802
Pt      11.07224600       1.46771000       4.68514300      -0.05074844       0.07392231       0.28895962
Pt       2.75633900       1.50470000       4.74991100      -0.21747112      -0.00186251      -0.12807231
Pt       5.49031800       1.49303300       4.73614600       0.16616784      -0.02885909      -0.36103330
Pt       8.30834300       1.47073400       4.65040300       0.20396871       0.12415652       0.31554483
Pt       1.42363300       3.85633800       4.72595600      -0.22099456       0.19267026      -0.11865539
Pt       4.15561600       3.84776100       4.70171000      -0.01705670       0.24349223       0.50688069
Pt       6.88818000       3.89496500       4.72179500       0.02053695       0.18138003      -0.25270295
Pt       9.69773000       3.87740000       4.71553000      -0.06073769      -0.04558772      -0.20565639
Pt      -0.00266100       6.24900900       4.68774400       0.03956979       0.05594001       0.01447685
Pt       2.75540600       6.25409100       4.68155800      -0.03104916      -0.07534824      -0.11843890
Pt       5.48425700       6.22188800       4.66520800       0.46160253       0.19387508       0.44702900
Pt       8.31939400       6.26145000       4.71084700       0.01284729       0.13559896      -0.47781693
Pt       1.33878600       8.67550300       4.69259200      -0.14337398      -0.01290488      -0.01994456
Pt       4.12412200       8.70527900       4.70471100       0.13583808       0.01953113      -0.40673724
Pt       6.90697400       8.70590100       4.69250500       0.09543319       0.02750412      -0.45710567
Pt       9.67287300       8.65464400       4.72575400       0.08789214       0.25792795       0.04078644
Pt      11.03641400      -0.25200500       7.11861100       0.03214188      -0.33311421       0.21744592
Pt       2.62317700      -0.20411500       6.98121400      -0.02687523      -0.05448785       0.03897587
Pt       5.58951600      -0.13581600       7.02304300       0.47588449       0.05474599       0.15075305
Pt       8.35671000      -0.01976400       7.08292100      -0.33650652       0.45108928      -0.11671935
Pt       1.18429600       2.11475400       7.06194600       0.28332068       0.10806039      -0.20838690
Pt       3.66081200       2.90189900       7.22091200      -0.55305462       0.98600117      -0.30600192
Pt       7.01217500       2.22915000       6.88656800      -0.17739790      -0.33732876      -0.28108742
Pt       9.66464300       2.27880900       7.12148500      -0.10485834       0.22883848      -0.06579762
Pt       0.03105400       4.55870200       6.96733200       0.49077735      -0.68311542      -0.36049029
Pt       3.87607300       4.31946300      15.82962000      -1.19640175      -0.40579879      -2.24359312
Pt       6.02455100       5.10216200       8.33048600       0.56463898       0.56470223       0.40709565
Pt       8.27453600       4.64306100       7.01378500       0.13662380      -0.07691764       0.13843695
Pt       1.43946500       7.00807500       6.99922700       0.89310257       0.02505797      -0.02513871
Pt       4.18569100       7.07144000       6.90833800      -0.38204642      -0.10323031      -0.10746441
Pt       6.86334700       7.09657100       6.84495400      -0.43649159      -0.37213533      -0.66161946
Pt       9.87725600       6.88060600       7.07302400       0.19818733      -0.25459065      -0.32792469
O        5.56615000       3.31853200       7.73783400       0.28706112       0.40794257       0.85210376
O        3.36196800       4.89378900       7.41197100      -0.03038016       0.00369262      -0.04001717
O        2.72765600       3.97332600      13.97646800       0.94379805       0.44354258       0.84247292
O        8.39691400       7.82037300       7.97658700      -0.27031244       0.50136361       1.38371640
O        8.51650200       2.81190800       9.49287100       0.04071085      -0.34797313      -0.27789102
O        1.80613900       2.74988500       9.67041200      -0.82104535      -0.18403649      -0.42665815
O        8.22891100       4.04049800       9.51003500       0.10047409       0.28068170      -0.27309643
O       10.95412600       8.68277000       9.45836000      -0.09842801       0.71291194      -0.63976302
O        7.23817200       0.19911400       9.59923400       0.63098990       0.31964883       0.20020925
O        2.05035400       5.12616900       7.83174300      -1.12820221       1.14093174       1.04368079
O       10.86998200       7.42646600       9.45313700       0.16253538      -0.48974428      -0.17360861
O        6.05732200       6.45578100       9.52242500      -0.16693043      -0.01729427       0.12762957
O        6.13200800      -0.35339200       9.47721200      -0.47025480      -0.13229869      -0.89876929
O        4.05791700       1.04724200       7.59568100      -0.15428626      -0.95937174       1.27915889
O        4.95432600       4.70515300      17.37179500      -0.63706747       0.24549923      -0.71661793
O        3.05319300       2.82839000       9.57489900       0.74747220       0.20985551      -0.30816833
H        4.83474200       5.66619500      17.57348800       0.12423366      -0.41142693       0.00429529
H        2.45243600       3.93381600      12.98908500       0.88157992       0.18064418       2.18922920
82
Lattice="11.099 0.0 0.0 0.0 9.612 0.0 0.0 0.0 33.0" Properties=species:S:1:pos:R:3:REF_forces:R:3 system_type=Dry1.0PtOH2 REF_energy=-216311.67595387847 al_round=6 source=cp2k_sp REF_stress="-0.025219479642217775 -0.009253963537705669 -0.006098497428436472 0.0022914093378358434 0.0008838214311768575 0.0005686309205636562" _cp2k_dir=cp2k_sp_round6 orig_idx=94 dE_per_atom_meV=-34.853247371246674 F_rmse_meV_A=53.599540915013655 pbc="T T T"
Pt      11.06747900       9.25827800       0.00231000       0.29055319       0.13275944       0.04225557
Pt       2.79683700       9.26279600       0.00198000      -0.25251115       0.10607653      -0.00050188
Pt       5.51664700       9.26068100       0.00297000       0.30353983       0.07155329       0.04911013
Pt       8.34711400       9.26097000       0.00231000      -0.21381347       0.08015003      -0.04056275
Pt       1.35818500       2.05168100       0.00132000       0.22864051       0.04232088       0.08820221
Pt       4.19653200       2.05120100       0.00231000      -0.24345726       0.03685934       0.01291671
Pt       6.90923800       2.05293100       0.00000000       0.20713529       0.05473930       0.15174601
Pt       9.74403400       2.04850900       0.00132000      -0.20172363      -0.00621384       0.06794552
Pt      11.06747900       4.45227800       0.00231000       0.23770622       0.14273737       0.06548960
Pt       2.79683700       4.45689200       0.00198000      -0.20861984       0.14034830       0.01554386
Pt       5.51664700       4.45468100       0.00297000       0.26788069       0.11017641       0.05004344
Pt       8.34711400       4.45497000       0.00231000      -0.21943544       0.15235227      -0.05983935
Pt       1.35818500       6.85768100       0.00132000       0.17991141       0.04133151       0.05155525
Pt       4.19653200       6.85720100       0.00231000      -0.23230690       0.04504213      -0.00536744
Pt       6.90923800       6.85883500       0.00000000       0.22672606       0.07885883       0.10393685
Pt       9.74403400       6.85450900       0.00132000      -0.18287333       0.04201080      -0.01039343
Pt       1.38193600       0.68821900       2.37237000      -0.03414837      -0.22616711       0.28631858
Pt       4.16712000       0.69168000       2.37963000      -0.34591573      -0.43362018       0.08629960
Pt       6.93188000       0.68687400       2.37171000       0.06129459      -0.26210753       0.07080304
Pt       9.71717500       0.69196800       2.37963000       0.00132875      -0.28348883       0.39561464
Pt      11.09367200       3.09573700       2.37963000       0.04391085      -0.26877749       0.20482438
Pt       2.77919000       3.09045000       2.37105000      -0.19309140      -0.36091298       0.28752237
Pt       5.54550400       3.09429500       2.37963000       0.08854417      -0.24511254       0.09985600
Pt       8.32902300       3.08910500       2.37039000      -0.04067537      -0.23355029       0.27772853
Pt       1.38193600       5.49421900       2.37237000      -0.00158843      -0.24252601       0.19013669
Pt       4.16712000       5.49768000       2.37963000      -0.20133590      -0.19189738       0.16849880
Pt       6.93188000       5.49287400       2.37171000       0.03304536      -0.27096190       0.17651859
Pt       9.71717500       5.49806400       2.37963000      -0.12502144      -0.30586051       0.11713587
Pt      11.09367200       7.90173700       2.37963000      -0.13772989      -0.28178521       0.17000290
Pt       2.77919000       7.89645000       2.37105000      -0.00725822      -0.20119038       0.04117879
Pt       5.54550400       7.90029500       2.37963000      -0.04813363      -0.09885738       0.23530429
Pt       8.32902300       7.89510500       2.37039000      -0.05029335      -0.16889064       0.42957943
Pt      11.05432400       1.43162700       4.76895300       0.01487538       0.17563156       0.15945109
Pt       2.69595600       1.41774900       4.75166000       0.01556957       0.16542170      -0.22459153
Pt       5.41613300       1.41215300       4.67378200      -0.03089284      -0.01524767      -0.11029468
Pt       8.28096500       1.44693000       4.73557100       0.06277760       0.10992084      -0.12261026
Pt       1.37537500       3.81361300       4.77229800       0.04472949       0.17370683       0.18120674
Pt       4.09877900       3.85032300       4.71030700      -0.03590546       0.22482448       0.40018401
Pt       6.91525400       3.83847500       4.71746500       0.06822886       0.18639779      -0.16977201
Pt       9.69541800       3.81847100       4.73432000      -0.02103060       0.17804068      -0.13371846
Pt      -0.02581400       6.19858800       4.70822300      -0.01757143       0.16461849       0.02088353
Pt       2.74152800       6.20701900       4.72655800       0.04675757      -0.07245729      -0.24171148
Pt       5.50264400       6.25781500       4.69451300       0.09563219       0.08455228       0.29240284
Pt       8.29625100       6.24472000       4.73293900       0.19404168       0.14339609      -0.08901725
Pt       1.31725500       8.61363700       4.70640600      -0.09779243       0.10968944       0.13176853
Pt       4.09889200       8.62286000       4.76272600       0.04464618       0.13023873      -0.29372130
Pt       6.89527200       8.66179100       4.74378200      -0.00691781      -0.00408651      -0.13816955
Pt       9.64806400       8.63744900       4.76287800       0.04008196       0.15672160      -0.19881982
Pt      10.99575600      -0.20631400       7.11219200      -0.08753630      -0.17609744       0.36862526
Pt       2.56331800      -0.27872500       7.02948300       0.05845506      -0.50310631      -0.38622857
Pt       5.56403900      -0.34654100       7.12133100       0.17496615      -0.09563990       0.02581131
Pt       8.28564800      -0.00159300       7.09788800      -0.11096162       0.19572370      -0.06245930
Pt       1.27351100       2.16768200       7.21073900       0.04850798      -0.05934775       0.01812165
Pt       3.89354600       2.48869200       7.05902600       0.74602981       0.35778189      -0.52444698
Pt       6.56575400       2.08937900       6.89060300      -0.48099790       0.18633197      -0.72325652
Pt       9.70773300       2.25088300       7.17835000      -0.38312320       0.12431439       0.01145941
Pt       0.08535200       4.54579600       7.08216400       0.28240228       0.28534722      -0.67293745
Pt       3.38054400       4.52172800       8.52194600       0.31865432      -0.09997324      -0.45696477
Pt       5.49421500       4.63458600       6.97216800      -0.30627754       0.03283710      -0.64232127
Pt       8.35882400       4.70567100       7.06812700      -0.43037082       0.34466360      -0.30653723
Pt       1.37560800       6.91494000       6.98360300       0.18387657       0.06114135      -0.06569220
Pt       4.07494100       6.97471800       7.08537100      -0.84505637      -0.48601875      -0.02686546
Pt       6.80310600       6.91056800       7.05051200      -0.00285701      -0.34032512      -0.70541820
Pt       9.85663300       6.89572900       7.09778200       0.46130788      -0.56272865      -0.58972935
O        7.79720500       3.03988500       7.99532300       1.25696461       0.05078906       1.10016227
O        3.46265000       6.75940400       9.13889500      -0.04176860       0.27559400       0.83799406
O        1.93202000       4.61231200      12.68130700       0.05405128       0.04456288       0.11788817
O        8.33242200       7.80882400       7.97685100      -0.18103859       0.58146428       1.42062254
O        9.44397100       3.31496800       9.86713100       0.50993053      -0.38547421       0.21500903
O        1.84265700       2.50530700       9.68482900      -0.23438075      -0.27503607      -0.10936085
O        8.84636100       4.39189500       9.82110600       0.01013889       0.58122774      -0.14537018
O       11.00471700       8.73512300       9.50226500       0.08759903       0.72503109      -0.66869719
O        7.38608900       0.34419400       9.58956900       0.64571101       0.30820330      -0.03596048
O        2.27562700       6.00706300       9.36362000       0.69837801       1.06700635      -0.37884077
O       10.93331400       7.48675500       9.54902400       0.10784802      -0.47213017      -0.29259928
O        5.61773400       5.30248100      12.58877500       0.02891926       0.01310286       0.12581180
O        6.28140400      -0.23383900       9.58386700      -0.47248292      -0.15064763      -0.38636124
O        4.04132600       0.71120500       7.94083700      -0.44298465       0.09563990       1.14138888
O        5.35702200       5.62142900      13.75215200      -0.06884695      -0.01112208      -0.10422019
O        2.82029900       3.33559300      10.01843200      -0.54112572      -0.39214623      -0.67149198
H        2.56906300       4.49221000      13.40818700      -0.11359855       0.00760275      -0.17918688
H        2.22225800       3.98664700      11.99275700      -0.00925237       0.09103043       0.09385864
80
Lattice="11.099 0.0 0.0 0.0 9.612 0.0 0.0 0.0 33.0" Properties=species:S:1:pos:R:3:REF_forces:R:3 system_type=Dry1.0PtO REF_energy=-216278.02801187916 al_round=6 source=cp2k_sp REF_stress="-0.024742424666517764 -0.010783036219338599 -0.008667478285418561 0.0012185920280497614 -0.0005999345649138958 -0.00025929194382509017" _cp2k_dir=cp2k_sp_round6 orig_idx=98 dE_per_atom_meV=-32.86563481124176 F_rmse_meV_A=115.99604067461784 pbc="T T T"
Pt      11.06747900       9.25827800       0.00240000       0.27044613       0.06726161       0.01177822
Pt       2.79683700       9.26279600       0.00191000      -0.19767877       0.11401661       0.01789642
Pt       5.51664700       9.26068100       0.00303700       0.25606287       0.06649439       0.02751646
Pt       8.34711400       9.26097000       0.00240000      -0.22635531       0.09600551      -0.03129804
Pt       1.35818500       2.05168100       0.00127300       0.23447280       0.07707859       0.05850391
Pt       4.19653200       2.05120100       0.00240000      -0.27341782       0.02862152       0.03382698
Pt       6.90923800       2.05293100       0.00000000       0.23178445       0.04516349       0.10460791
Pt       9.74403400       2.04850900       0.00127300      -0.26047180       0.01204510       0.10472155
Pt      11.06747900       4.45227800       0.00240000       0.23402388       0.11186614       0.01744956
Pt       2.79683700       4.45689200       0.00191000      -0.19787057       0.11569039       0.02834230
Pt       5.51664700       4.45468100       0.00303700       0.26502213       0.08972328       0.04378898
Pt       8.34711400       4.45497000       0.00240000      -0.19544654       0.11184145      -0.03434788
Pt       1.35818500       6.85768100       0.00127300       0.22690656       0.00415645       0.08990583
Pt       4.19653200       6.85720100       0.00240000      -0.28847060       0.04349947      -0.03743681
Pt       6.90923800       6.85883500       0.00000000       0.23381768       0.02403827       0.14122762
Pt       9.74403400       6.85450900       0.00127300      -0.24363210       0.05489511       0.02241591
Pt       1.38193600       0.68821900       2.37237900       0.10375945      -0.17929486       0.25338789
Pt       4.16712000       0.69168000       2.37972600      -0.01463935      -0.26331132       0.42026433
Pt       6.93188000       0.68687400       2.37174300      -0.03176547      -0.18517292       0.17678238
Pt       9.71717500       0.69196800       2.37972600      -0.03702286      -0.27870915       0.30207739
Pt      11.09367200       3.09573700       2.37972600       0.14605821      -0.20775338       0.20681441
Pt       2.77919000       3.09045000       2.37110600      -0.10235460      -0.24047221       0.33522046
Pt       5.54550400       3.09429500       2.37972600       0.03079308      -0.18760004       0.22844048
Pt       8.32902300       3.08910500       2.37046900      -0.06743953      -0.16899965       0.26436445
Pt       1.38193600       5.49421900       2.37237900       0.07844385      -0.22600924       0.41360723
Pt       4.16712000       5.49768000       2.37972600      -0.12886267      -0.08444069       0.38893698
Pt       6.93188000       5.49287400       2.37174300      -0.00910890      -0.20265437       0.14043984
Pt       9.71717500       5.49806400       2.37972600      -0.01466146      -0.27168643       0.11883537
Pt      11.09367200       7.90173700       2.37972600      -0.02919282      -0.19900546       0.23543542
Pt       2.77919000       7.89645000       2.37110600      -0.00861525      -0.25126108       0.12380377
Pt       5.54550400       7.90029500       2.37972600      -0.01814171      -0.17943473       0.27687646
Pt       8.32902300       7.89510500       2.37046900      -0.05196766      -0.12161267       0.36017147
Pt      11.14106400       1.47507800       4.72470100       0.06655095       0.16475682       0.22885237
Pt       2.77658900       1.47227300       4.74100800      -0.06584287       0.11575776      -0.24641712
Pt       5.52202500       1.47001900       4.73650600       0.08591033       0.01777198      -0.17540993
Pt       8.32930200       1.50446400       4.73184700      -0.03214548       0.04320482      -0.27840164
Pt       1.42329300       3.87798400       4.78485000       0.03285150       0.10241270      -0.04480816
Pt       4.14089400       3.90693400       4.74947800       0.06284239       0.15220829       0.28412543
Pt       6.93739000       3.88616100       4.72214100       0.00320308       0.12771287      -0.29581213
Pt       9.72853700       3.87505900       4.72107700       0.03612297       0.17195231      -0.32283442
Pt       0.03096100       6.26277300       4.72104400      -0.07619876       0.14758647       0.11831446
Pt       2.77921200       6.25411900       4.77495500       0.02035491      -0.07283062      -0.20341284
Pt       5.53123700       6.28297000       4.71976400       0.07918021       0.20656913       0.15786163
Pt       8.33555000       6.30961600       4.71127700      -0.01638718       0.00821879      -0.06995715
Pt       1.39145700       8.65244900       4.71348800      -0.11170776       0.09677633       0.24070258
Pt       4.16544600       8.67134100       4.76811700       0.03512076       0.03546066      -0.10149379
Pt       6.93938800       8.70229400       4.73623600       0.00881169       0.12084546      -0.05442254
Pt       9.71063600       8.69538400       4.74297800       0.05797889       0.14982848      -0.18347291
Pt      11.10351700      -0.16497300       7.10027000      -0.13523078      -0.12613216       0.27269328
Pt       2.64224100      -0.22922700       7.04190800       0.22774371      -0.25805496      -0.45789448
Pt       5.65400300      -0.22517500       7.15124700      -0.06162780      -0.10084124      -0.16314525
Pt       8.36767400       0.05447000       7.06545900      -0.08864342       0.17790081      -0.10177456
Pt       1.47147700       2.28593800       7.17043900       0.27775989       0.84713330       0.24397714
Pt       4.11149600       2.47584800       7.00523500       0.12857059       0.47069446      -0.57817532
Pt       6.78275500       2.23363800       7.03137000      -0.31974550       0.11260507      -0.65894602
Pt       9.90558900       2.22968400       7.03487000      -0.22099148      -0.15315960      -0.50203210
Pt       0.05580700       4.62865600       7.03463200       0.16854765       0.16264954       0.47476349
Pt       2.82901800       5.09161800      10.96047200      -0.66660174       0.85399455      -1.79298926
Pt       5.53592000       4.70950300       7.05487300      -0.45756487      -0.06175687       0.19464075
Pt       8.34236700       4.82670500       6.99658600      -0.01245648       0.13862464      -0.29355213
Pt       1.43701500       6.96424600       7.10542600       0.54862769       0.00023911       0.11156583
Pt       4.12712500       7.02968600       7.13624600      -0.44414576      -0.41598550       0.27703741
Pt       6.82319000       7.02433300       7.03527200       0.30888413      -0.52647969      -0.73177612
Pt       9.89119600       7.01547900       7.07667100       0.26854609      -0.63430354      -0.71885993
O        8.32703200       3.07703100       7.95954600       0.45512746       0.50847837       1.45154211
O        2.69289900       5.14835500      12.69790300      -0.02416683      -0.44910748       0.68800309
O        3.58556900       6.55117200       9.27610200       1.61953955       0.26809615      -0.96343562
O        8.36905000       7.89373900       7.98155800      -0.29346625       0.54512636       1.41450434
O       10.63781900       4.79005600       9.37418200       0.61862804      -0.33994203      -0.76636621
O        1.90307600       2.81745700       9.28605200      -0.25152333       0.08029761      -0.19100264
O        9.58651200       5.47289600       9.47643700      -0.35618009       0.29171430      -0.11337692
O       10.93113200       9.14567500       9.61431600       0.09289191       0.37149924      -1.14685042
O        7.62152800       0.48435800       9.61411300       0.40306519       0.29140680      -0.34073959
O        2.24510000       6.44720400       9.36981900      -1.39893631      -0.30594433       0.30437544
O       10.87951800       7.91473000       9.77952100       0.09183673      -0.59219452       0.21307813
O        5.75427500       4.31219000       9.39574600       0.06405955       0.48469309      -1.05900096
O        6.46325700       0.02903100       9.60483700      -0.65874548      -0.35371594      -0.21996046
O        4.10630100       0.74933700       7.99566500      -0.26837228       0.17146328       1.25037898
O        5.90571800       3.07058800       9.53484900       0.21517255      -0.49303786       0.08307698
O        2.90652400       3.65068800       9.57728200       0.25648247      -0.52177560      -0.13520044
80
Lattice="11.099 0.0 0.0 0.0 9.612 0.0 0.0 0.0 33.0" Properties=species:S:1:pos:R:3:REF_forces:R:3 system_type=Dry1.0PtO REF_energy=-216279.27362917236 al_round=6 source=cp2k_sp REF_stress="-0.024276160207813893 -0.010869623674776424 -0.009235786988015707 0.0012820799058601176 -0.000450445399892157 -0.000387937546103921" _cp2k_dir=cp2k_sp_round6 orig_idx=99 dE_per_atom_meV=-33.87308070268773 F_rmse_meV_A=41.76058387800245 pbc="T T T"
Pt      11.06747900       9.25827800       0.00241800       0.24084451       0.07271389       0.01078578
Pt       2.79683700       9.26279600       0.00189600      -0.19248874       0.12774064       0.01254853
Pt       5.51664700       9.26068100       0.00305000       0.25447650       0.07690941       0.02465894
Pt       8.34711400       9.26097000       0.00241800      -0.20596183       0.11246572      -0.05755363
Pt       1.35818500       2.05168100       0.00126400       0.22299077       0.09103917       0.03108927
Pt       4.19653200       2.05120100       0.00241800      -0.25676632       0.04217638       0.01560094
Pt       6.90923800       2.05293100       0.00000000       0.22292752       0.04417618       0.06728063
Pt       9.74403400       2.04850900       0.00126400      -0.26595802       0.01162344       0.08845161
Pt      11.06747900       4.45227800       0.00241800       0.22210836       0.08973716       0.02270953
Pt       2.79683700       4.45689200       0.00189600      -0.22116682       0.11561223       0.00593822
Pt       5.51664700       4.45468100       0.00305000       0.28471010       0.05743279       0.04644852
Pt       8.34711400       4.45497000       0.00241800      -0.19655725       0.09806805      -0.04462818
Pt       1.35818500       6.85768100       0.00126400       0.23652608      -0.00494680       0.05799381
Pt       4.19653200       6.85720100       0.00241800      -0.27862739       0.03897690      -0.04002128
Pt       6.90923800       6.85883500       0.00000000       0.22631932      -0.00501725       0.12190475
Pt       9.74403400       6.85450900       0.00126400      -0.28110696       0.03639448       0.02626485
Pt       1.38193600       0.68821900       2.37238100       0.13750878      -0.19592630       0.27890661
Pt       4.16712000       0.69168000       2.37974500      -0.05064919      -0.28845774       0.40639991
Pt       6.93188000       0.68687400       2.37174900      -0.01493965      -0.19998505       0.18484331
Pt       9.71717500       0.69196800       2.37974500      -0.01042840      -0.27367853       0.28971501
Pt      11.09367200       3.09573700       2.37974500       0.16022036      -0.20083351       0.19519817
Pt       2.77919000       3.09045000       2.37111700      -0.09425099      -0.28786279       0.30879825
Pt       5.54550400       3.09429500       2.37974500       0.03709691      -0.18945381       0.19911396
Pt       8.32902300       3.08910500       2.37048500      -0.06329182      -0.17127765       0.24862827
Pt       1.38193600       5.49421900       2.37238100       0.14506679      -0.18587226       0.48438147
Pt       4.16712000       5.49768000       2.37974500      -0.16465449      -0.04073039       0.41654960
Pt       6.93188000       5.49287400       2.37174900      -0.01968900      -0.17339110       0.15374272
Pt       9.71717500       5.49806400       2.37974500       0.01514071      -0.23361714       0.14054011
Pt      11.09367200       7.90173700       2.37974500       0.03443324      -0.16271690       0.31546667
Pt       2.77919000       7.89645000       2.37111700      -0.01052455      -0.23397863       0.30504136
Pt       5.54550400       7.90029500       2.37974500      -0.05600377      -0.14064707       0.35334673
Pt       8.32902300       7.89510500       2.37048500      -0.04259033      -0.11789897       0.38066162
Pt      11.14682700       1.47270000       4.72821700       0.05549521       0.09830099       0.17986873
Pt       2.77815600       1.45977400       4.74822800      -0.08176314       0.11138380      -0.29451680
Pt       5.52187000       1.46444600       4.73363200       0.04775619       0.00128298      -0.15708310
Pt       8.33283000       1.50180600       4.72717200      -0.04347736       0.03353953      -0.21573100
Pt       1.43052700       3.87452800       4.76952600       0.01157305       0.16900428      -0.04950248
Pt       4.14014100       3.90600000       4.73704000       0.06958228       0.23048347       0.31547695
Pt       6.94059400       3.88463300       4.71548200       0.00591045       0.13714162      -0.28121134
Pt       9.72828000       3.87363500       4.71440000      -0.00155963       0.16782157      -0.34251210
Pt       0.04556900       6.26504200       4.73003800       0.01586319       0.24351126       0.29804179
Pt       2.78161600       6.26605700       4.82879700       0.03881286      -0.03425892      -0.16166584
Pt       5.52727200       6.28609400       4.72339200      -0.01359394       0.24034623       0.22752311
Pt       8.33968400       6.30976700       4.71694400      -0.03517526      -0.03867042      -0.10861986
Pt       1.39474200       8.64390100       4.72948000      -0.08983435      -0.00633726       0.34541179
Pt       4.16782900       8.66024100       4.79405400       0.02330911      -0.01124446      -0.10479149
Pt       6.94092400       8.70026800       4.73619600      -0.02108768       0.07506850      -0.03623045
Pt       9.71560900       8.69390300       4.74277300       0.04558515       0.13630859      -0.16981521
Pt      11.11038800      -0.17777300       7.10568300      -0.11799308      -0.05974936       0.17945787
Pt       2.64956200      -0.27072600       7.06874300       0.29991972      -0.31428499      -0.51526043
Pt       5.65113500      -0.23404000       7.15898900      -0.09453896      -0.10532885      -0.15140199
Pt       8.36815600       0.04401400       7.06040500      -0.07786998       0.11306890      -0.15370004
Pt       1.46914200       2.26246300       7.15360000       0.18619159       0.66501228       0.00590634
Pt       4.11754300       2.47140500       6.99618000       0.04864888       0.57105028      -0.50825828
Pt       6.78869300       2.22037200       7.02297500      -0.36501080       0.07630829      -0.61710646
Pt       9.90209500       2.21403800       7.03472400      -0.14951789      -0.13599646      -0.40878641
Pt       0.03481800       4.60427400       7.00313400       0.20541059       0.13026495       0.36812852
Pt       2.84331700       5.46216000      10.41641700      -0.40569440       0.48373458      -1.85244346
Pt       5.55755900       4.68903300       7.03059700      -0.41106698      -0.00716875       0.22046286
Pt       8.34516000       4.82249100       6.99798900      -0.00138685       0.16280021      -0.34247200
Pt       1.46209500       6.90095100       7.26141700       0.84060167      -0.19362362       0.19899209
Pt       4.13928900       6.98262800       7.29288700      -0.38633039      -0.45324490       0.26993089
Pt       6.82391300       7.01877200       7.03946100       0.28525055      -0.49239817      -0.80912417
Pt       9.90510600       7.00925400       7.07326100       0.27922440      -0.59312218      -0.74770925
O        8.32529200       3.06831800       7.95497600       0.42526821       0.54308953       1.39129344
O        2.74908200       5.23887600      12.15417400       0.03568691      -0.14856504       0.60395989
O        4.04244200       6.47662700       9.24074200       1.42447251       0.10506608      -0.56131197
O        8.37818400       7.88375800       7.97291400      -0.34720745       0.61940811       1.54166134
O       10.58961500       4.73364200       9.39862800       0.43336050      -0.19581472      -0.90904342
O        1.86012300       2.83881300       9.17963900      -0.58966867       0.13660015      -0.42752461
O        9.57008600       5.45446100       9.48301300      -0.48458613       0.19784126      -0.12368447
O       10.94793400       9.16724200       9.61322900       0.01447274       0.32999752      -1.18635851
O        7.62118900       0.48246100       9.61213500       0.42738680       0.31097187      -0.28923884
O        1.66988200       6.42784500       9.20013000      -1.63926814      -0.07008725      -0.54117098
O       10.83919300       7.94800200       9.81807600      -0.04920732      -0.26375767       0.60214058
O        5.78998900       4.28663500       9.43086200      -0.16756035       0.37706773      -0.99269221
O        6.46387500       0.02648800       9.60594600      -0.68398703      -0.39171685      -0.27717111
O        4.10434600       0.75180400       7.99567400      -0.28122626       0.10983496       1.22192201
O        5.90526100       3.04581700       9.55382600       0.26116497      -0.49353820       0.05473571
O        2.88735200       3.67277400       9.32125400       0.68115110      -0.17259817      -0.04965161
296
Lattice="30.0 0.0 0.0 0.0 30.0 0.0 0.0 0.0 30.0" Properties=species:S:1:pos:R:3:REF_forces:R:3 system_type=Nafion_four_dry_initial REF_energy=-142232.69270687178 al_round=6 source=cp2k_sp REF_stress="-0.00023920521860013597 0.00025778077840261406 -0.000815707060879531 0.00015362839284610363 -6.611578365210387e-05 2.306438792759226e-05" _cp2k_dir=cp2k_sp_round6 orig_idx=231 dE_per_atom_meV=-6.815999571109707 F_rmse_meV_A=132.62102286529483 pbc="T T T"
O       30.08333500      30.31673400       0.50801700       1.29043112      -1.34725044       1.22172198
O        2.18445400       1.86963800       1.16687900      -1.22560023      -2.24233277      -0.93029410
O        2.02591800      29.36807000       1.75677900      -0.64750256       1.14765980      -0.88182109
S        1.70927000      30.48975300       0.86644900      -0.05263254       0.94864201       2.09455655
H       29.59768800       1.04909200       0.14745300      -0.19735429       1.54354442      -0.51496269
C        2.22689500      29.96456100      29.20484600      -0.15437007       2.95220721      -1.06994306
C        3.69578900       0.19845500      28.90810600       1.82167815      -2.66055255      -0.73417034
O        4.34457300      29.29235700      -0.24778100       0.50445356      -1.17227503       0.57641000
C        5.52541800      28.56781500      29.52671600       0.42107422      -0.83880910       0.83382322
C        5.69089500      27.57713900       0.85512100       0.12987671       3.51232104       0.69664817
C        6.77468100      29.44182800      -0.75416600      -0.49364927      -0.76403730      -0.99572045
F        1.68855000       0.86336900      28.25510300      -0.65535779      -0.58067804       0.63246880
F        1.79179800      28.74341700      29.02111100      -0.17633604      -1.28091855      -0.90172400
F        4.17378500       1.40484200      -0.94890100      -0.07448846       2.00522408       0.94515816
F        3.92044100      -0.11162700      27.59984400      -0.09062214      -0.64781314      -0.68064613
F        5.55378500      27.70459200      28.46580400      -0.75170063      -0.11504196      -0.49052178
F        6.71982200       0.04156200      28.03712100      -0.09044730      -0.72982311      -1.52969337
F        6.81694000       0.48386800       0.01856800       0.85979136       1.27501221       2.78583831
F        7.84193100      28.58121800      -0.71538700       0.50405453       1.08891626       0.05256467
F        4.63442800      26.81702300       1.05960100      -1.01196983      -0.38248505       0.32862095
F        5.83161000      28.49254400       1.94746700      -0.06063536      -0.79514662      -0.93435541
O        6.79347500      26.84221300       0.70418500       0.70464070      -1.06719558      -0.88857898
C        7.64421900      26.32170600       1.64351700       1.00686876       0.13855470       0.86118181
C        9.19759900      24.73086100      30.04102300       1.49176445      -2.06821405      -1.02570517
C        8.13820100      24.86769700       1.18153600      -2.75733454      -0.95484814       0.56766877
F        8.73099300      27.12414400       1.66145700       0.48613188       0.77672055       0.14573425
C       11.80964700      24.67149200      29.33418400      -1.44749108       0.77088878      -0.96817776
C       10.69952000      24.61574500       0.51401100      -0.45781118       0.37917038      -1.48228016
C       14.29603900      25.07537300      28.57243700      -0.26392942       0.01002833       0.03383315
C       13.28021200      24.63395700      -0.24765000       0.86467954       0.20306317       0.10140226
C       16.88532500      25.53566500      28.12257400      -1.92982338       0.41952899      -0.08303584
C       15.77611200      24.88949500      29.05113300       0.24197991      -1.32844797      -2.31955894
C       24.21261600      24.60897400       1.02284900       1.20120560       1.06487490       1.46147737
C       23.18788500      23.86877200      30.18311100      -1.89106811      -0.80913240      -3.17427546
C       26.77365500      24.83532200       1.52905700      -0.18362769       0.84697647      -0.69035925
C       25.59520200      23.90442300       1.10740100       0.47988461       0.46901399      -2.11951168
C       21.66270300      24.48922900       0.30277500       0.91100568      -0.56549619      -0.38718914
C       20.73508000      24.27477600      28.99317100      -1.18575070       0.70751674       0.73481980
C       19.16452000      24.87266300      29.28398100       1.06745372      -1.20153470       2.99233699
C       18.30688100      25.01889000      28.01340700       0.88240833      -1.17018678       0.21861526
F        6.96157000      24.42215400      30.57122800       0.45100341      -0.53212275       0.23969985
F        8.34702600      24.01153400       2.30175700       0.52359954       1.35209955      -1.98438168
F        7.13201300      26.28649200       2.91090100       0.22002680      -0.31367615      -0.37563666
F        9.04624200      25.66489700      29.07533500      -0.17794349       0.19920292       0.39168497
F        9.01134300      23.47850900      29.42518600      -0.88771149       0.91655207       0.56305672
F       10.83273800      25.62348000       1.37819700       1.24717899       1.00111720       0.92872161
F       11.59701400      25.80555000      28.55506100      -0.19729310      -0.41340102       0.81446846
F       11.61546000      23.60161600      28.50567000       0.04963309      -0.18635203       0.14244324
F       10.83441800      23.42594200       1.10951400       0.67361314      -0.69888348       0.86319601
F       13.51991400      25.44613500       0.83509600      -0.86389124      -0.01372044      -0.11727317
F       14.10572400      26.40517900      28.38825500      -0.08287849       0.55551362      -0.39119852
F       14.05628000      24.39958400      27.39782100       0.08417690       0.33326333       0.87161329
F       13.54444500      23.36903600       0.13867800       0.56762043      -0.83850417       0.24660224
F       15.85106600      25.39884700       0.24484900       1.01354437       0.64798541       2.34068004
F       15.98738000      23.52678100      29.01750400       0.46772432      -0.20168712       0.21435906
F       16.94703000      26.86374500      28.36993700      -0.31633313       0.59721229       0.33256811
F       16.40088900      25.39072100      26.86396000      -0.13054314      -0.10907855      -1.12614070
F       18.91674300      25.87735000      27.17339400       0.65037036       0.29483511      -0.55798805
F       18.27235500      23.77111000      27.41770300       0.44015387       0.43018159       0.43208832
F       19.30666500      26.05657400      30.04089600      -0.66747540      -1.07279030      -1.40294466
F       18.50094800      23.95220500       0.17868100       0.87041207       1.01632373      -1.52238886
F       21.22350600      25.02444000      27.99849700       0.23558043       0.33329264      -0.55352976
F       20.71430100      22.98391300      28.56327100      -0.12623552       0.35794438       0.84876390
F       21.87289800      25.82439200       0.49009600      -0.86073855      -0.01064128       0.10652493
F       21.02318000      23.96883200       1.38485100       0.07466998       0.01823735      -0.08130600
F       23.55818300      24.10480400      28.76557600      -0.34378480      -0.37725131       2.55344913
F       23.19304500      22.50558500      30.32169000       0.21328794       0.87057765       0.39420619
F       24.35075200      25.82420500       0.45674800       0.24446565       0.58113106      -0.63314191
F       23.87839800      24.87022000       2.34699100      -1.13238385      -0.93498739      -0.25599242
F       25.93508700      23.61710000      29.78508200      -0.20262454      -0.43982220       0.28937563
F       25.47932200      22.78757800       1.82390000       0.58833684      -0.65674927       0.59692535
F       26.80795800      25.85723300       0.59693100      -0.83937423       0.57321669       1.08851311
F       26.56155000      25.22537000       2.82824200       0.89434442      -0.00316091      -0.86454430
F       27.99107900      24.31678600       1.32552500       0.28199245      -1.29939655       1.25509542
O       29.07352500       6.63344500       0.15275700      -1.75278801      -1.29050414      -0.13797518
O       27.15667800       8.11950700       0.99485100       0.20631819      -1.70733038      -0.36067695
O       26.66365500       5.61112800       0.42132300       1.14657634       1.18904223      -0.05103846
S       27.53914700       6.69245100       0.88317800       0.00919992       0.97583297       0.93167684
H       -0.50164800       7.50107800       0.09826700      -0.21085207       0.70554264       0.21985865
C       28.11688800       6.13574000       2.68780000       0.28995258      -1.40647838      -1.47681760
C       27.58902700       6.88882500       3.89960400      -0.82720417       0.78587214      -0.79314322
O       26.17181300       6.88318400       3.79654800      -1.05693894      -0.53134628       0.74593828
C       25.08129300       6.62740700       4.67849800      -0.10024681      -1.30266751       0.14549668
C       23.70358400       7.29683500       3.87681400       1.29007785      -1.01154354       0.91683592
C       25.26600200       6.95215900       6.29202300      -1.24077540       1.92927934      -1.18614511
F       29.45731600       6.21888000       2.62018200       0.64732566       0.48016589       0.76562264
F       27.85563200       4.80800600       2.94960800      -0.51299888       0.16269068      -0.98721781
F       27.93277200       8.16998800       3.88861300       0.46568390       1.58554750      -0.37517952
F       28.26954600       6.35422000       4.90110200      -0.21533608      -0.90331448       2.16615509
F       24.80687800       5.25101500       4.68305500       0.29116717       0.42916292      -0.09465363
F       26.37589100       6.50715000       6.91170600      -1.06408198      -0.67000331      -0.27658541
F       25.31880500       8.37304200       6.47374300      -0.65594297      -2.19520033       0.00529904
F       24.08619500       6.39393800       6.80187400       1.64046164       1.11060866       0.05353294
F       23.97832600       7.24911700       2.56109500       0.25238413      -0.14135463      -0.06357362
F       23.63433200       8.56875600       4.26996300      -0.07287330       0.75355491       0.54661297
O       22.45622000       6.56714900       4.12324600       1.86842698       0.38428842       0.24201590
C       21.33355600       7.26956000       3.75900600      -2.31122960      -0.91843823       1.50264227
C       19.38083900       5.21542500       3.95970900      -0.68646763       2.84434993       2.32416173
C       20.17916800       6.30326100       3.16528300      -1.26177051       0.59187776      -1.17958262
F       20.79245600       7.91513700       4.88112300       0.57828485       0.19145927      -1.10829621
C       17.43848400       4.91573900       5.88348700       0.95750100       1.89441723      -2.47753628
C       18.11195700       5.88663500       4.73351500      -0.90712589       0.90102929      -0.40393988
C       15.41185900       4.68801200       7.48860600       1.48810834      -1.72327071       0.16641518
C       16.26983800       5.69957500       6.63603400       0.47367180      -1.34962152       1.49020945
C       13.74336800       4.76362900       9.37509300      -0.88598473      -1.64524698      -0.97465437
C       14.19921000       5.42165300       7.98567900      -2.73830529      -0.91283374       1.64898074
C        6.85464600       7.22703100      12.67950700       0.06333759      -0.06148074      -1.27077503
C        7.74519100       6.19364300      11.86187700      -0.22120899       1.31243102      -0.05860213
C        4.72639900       7.60285100      14.19468500      -2.33460504       1.42644608      -0.46747544
C        5.49082800       6.53777200      13.25663200       0.00294700      -0.01222714       0.31208412
C        9.08283200       6.79558700      11.26343900      -1.90915223       2.82451182      -0.78344553
C        9.83102200       5.84909600      10.29495800       1.92933025      -2.52041302      -0.91291961
C       11.41755000       6.00565000      10.27468100       0.65727018       1.19487503      -0.01966174
C       12.19025000       4.69054700       9.87936000       1.16290491      -2.04470902       0.19424994
F       20.75493300       5.71629600       2.10178000       0.68718085      -0.66883808      -0.71218432
F       19.13631800       7.10886700       2.63656800       1.73941878       0.18822071       0.32154630
F       21.55692400       8.12797000       2.77814600       0.34676008       1.45661490      -0.50902447
F       20.19373400       4.81445900       4.96027600       1.05963551      -1.40458039       0.19349712
F       18.90937000       4.23924500       3.19361300       0.44226423      -0.76084193      -0.31393121
F       18.46040800       7.04622700       5.48200900      -0.28665488      -1.36687259      -1.13802022
F       18.44967400       4.77211400       6.74702900       0.12955790      -0.40418567       1.07017703
F       17.15445500       3.69171100       5.35953900      -0.87679047       0.54939028       0.05419989
F       17.22277800       6.30037500       3.71739400      -0.03922578      -1.24767213       1.68197776
F       16.93263500       6.45872400       7.61090100      -0.69845720      -0.01752721      -1.12780574
F       16.24923400       4.27470100       8.57410900      -0.81532464       0.84764650      -1.52928868
F       14.98772900       3.52012800       6.85282200       0.93526301       1.16375234       0.09444331
F       15.40134500       6.46630500       5.92449000       1.17395654      -0.21769943      -0.54475561
F       14.47507900       6.68347100       8.26948300       0.36697307       1.75966519       0.28340090
F       13.16708400       5.36954200       7.05205800       0.50752809      -0.22946480       0.66876044
F       14.47461000       5.27296300      10.34834500       0.88398956       0.85221380       1.15544408
F       14.09897400       3.39952300       9.21509900      -1.21567474       0.90231124       0.67586491
F       12.29169800       3.85391000      11.01235100      -0.27826023       1.19189975      -0.70043129
F       11.56678300       3.91367000       8.95580500      -0.46026144       0.83810205      -0.53450102
F       11.77675600       6.34371300      11.54809500       0.58586344      -0.18039375       0.22358675
F       11.90761700       7.04256700       9.48224400      -0.57215534      -0.60505930       0.09222393
F        9.73658100       4.54163400      10.78703400      -0.87715402       0.57451253       0.55196395
F        9.37531300       5.71719600       8.99246000      -0.53231815       1.19253533       1.25597885
F        9.69617400       7.28513600      12.36435900       1.43570926      -0.37291643      -0.72611764
F        8.81573500       7.97704500      10.42781100      -0.02019550      -1.72505968       1.12930521
F        8.05767600       5.27191800      12.77739700       1.15188361      -0.96786203       0.68357308
F        7.05231700       5.64103600      10.87464600      -0.69539707      -0.61686683      -1.39836295
F        7.69913600       7.63119800      13.68005000      -1.10486379       0.57485706       0.32250738
F        6.49922900       8.29705000      11.86276500       0.25681054      -1.03677892       0.65481477
F        5.83800300       5.38101600      13.94572000      -0.19126541       1.12143147      -0.13985722
F        4.61548200       6.12626700      12.27515400       0.97432887       1.00399581       0.41194989
F        5.46990500       7.90526000      15.31170000      -1.21697675      -0.50225116      -1.14925955
F        4.44651900       8.82680400      13.50797300       0.90927584      -1.73149310       0.73993783
F        3.36841700       7.17617200      14.45721900       2.83234494      -0.02949621       0.21043915
O       28.90696400      17.54113200      13.71318300       1.96098156      -0.14146005       0.36425233
O       31.05721400      18.46141400      14.78013300       1.81247617       3.88324281       2.60476630
O       30.25670000      15.97367500      14.72999600       1.90902984       0.97904222       0.40876481
S       30.53626200      17.31619500      14.21681100      -4.65478362      -6.65172926      -3.57469344
H       28.91215400      18.45326400      13.45321500      -0.58778302       1.61022392      -0.67146164
C        1.44900800      17.08313700      12.44369900      -0.00175298       3.85527126       0.94845843
C        2.91064400      17.69215700      12.56283900      -0.00438116      -0.27840267       1.97775698
O        3.52146500      17.11568300      13.72484700       0.43706083      -0.48291440      -0.75284426
C        4.57289100      16.11004600      13.59679800      -2.84654926       0.78209930       0.26351393
C        4.40962800      15.34734100      14.98827400       1.74656748      -0.20361904       1.66921069
C        5.95923000      16.77322200      13.24200800      -1.88353478      -1.86528406      -1.09705741
F       30.81173000      17.89724200      11.52120600      -0.40544449       0.02590181       0.12941854
F        1.39885000      15.87667300      12.01863500       0.26539340      -2.57462628      -0.56937649
F        2.84583400      19.05164500      12.87774600       0.32149693      -1.11104575      -1.43055265
F        3.60890700      17.42558900      11.44393300      -0.08128543       0.67802567      -0.47649384
F        4.26870500      15.19070800      12.61720900      -0.07841300       0.21357590       0.50895814
F        5.87802000      17.96543400      12.66849600      -0.25712319       1.17673796       0.14257077
F        6.66089400      16.78288300      14.33529600       1.66171490       0.59873901       1.57990702
F        6.44665800      15.94186700      12.30309700       1.26299487      -0.49810242      -0.49826440
F        3.19966600      14.83093300      15.26950000       0.04114331       0.48967589      -0.61548101
F        4.69791400      16.18180900      16.09108700       0.14871210      -0.52079190      -1.46925598
O        5.36313800      14.28974000      14.86628500      -1.52099121       0.39460163       0.68504838
C        5.90345600      13.57174300      15.94175600      -1.44402677      -1.14340926       0.65763527
C        7.08557900      12.03374400      14.12567800       2.02326602       0.62761558      -1.02447104
C        6.14457300      12.08401300      15.34771200      -0.55538146       0.42179310       2.07509432
F        7.02143200      14.15303900      16.27653200       1.78474476       0.51858692       0.82799864
C        9.58411400      11.97147200      13.26325400      -0.37163653      -0.16826277       0.25766004
C        8.66429200      11.69005400      14.49521400      -2.60763153      -1.65524960      -0.57181236
C       11.93248600      11.82574600      12.31800700       0.57179436      -1.41206745      -2.06746946
C       11.00788200      11.33993600      13.45872600      -1.59246891       0.43060273      -0.77442147
C       14.49830200      12.08479000      11.59489000      -0.08653151       0.03575531       0.21707003
C       13.49709600      11.36078300      12.56283500       0.58858469       1.69185286       0.06579762
C       21.77120800      11.87104100      14.96095200       0.96413393       0.51792460       0.30543062
C       20.92277300      11.73101700      13.64508700      -0.71014543      -0.71093167       1.50091861
C       24.29636300      11.65000000      15.92686600      -0.10010488       2.57318749      -1.63965843
C       23.30456000      11.69542200      14.55942000       1.10561404       1.40098239       1.72332419
C       19.34531300      11.91131600      13.90464800       0.11687413       1.26466815      -1.41457581
C       18.45458000      12.21659000      12.59246300      -0.00212887       0.42859522      -0.93539363
C       16.88430700      12.09752300      12.90397700       0.58020547      -0.21691936       1.26905908
C       16.08832000      11.67625300      11.62766600      -1.60242782       0.32782545       0.42190520
F        4.94094400      11.56707700      15.02106700      -0.40583375       0.09239877      -0.47072274
F        6.63823300      11.33930000      16.42051900       0.11400529       0.58192759      -0.68974321
F        5.18704000      13.45600100      17.21695400       0.53342424       0.01511295      -2.75772175
F        7.16933800      13.27026700      13.51303200      -0.80846597       0.02013174      -0.01598866
F        6.60123900      11.17425400      13.17181400       0.22671424      -0.00738061       0.79323732
F        9.10041700      12.38454800      15.56691800      -0.26537489      -0.36441276       0.05914720
F        9.59113800      13.32816000      13.11475500       0.59009033       0.21093640       0.38093930
F        9.06595000      11.46798400      12.12915800      -0.69531891      -0.47860832      -0.20213912
F        8.55678800      10.30833900      14.76199300       0.93973365       0.96051690       0.40274791
F       11.53141800      11.90025100      14.51759200       0.66086972       0.65106096       2.83047266
F       11.96338300      13.18134600      12.17100200      -0.29655415      -0.32473652       0.71150400
F       11.32045700      11.37158100      11.13487900       1.44014029      -0.50092704       0.67847407
F       10.79368100       9.97289300      13.68343200       1.00943112       1.23087408      -0.83989616
F       13.87160000      11.78218500      13.81879900      -0.42055280       0.34255221       0.22754985
F       13.72459300      10.06805400      12.53810400      -0.88676018      -2.05477284      -0.33026542
F       14.40108500      13.39858900      11.89263100       0.63202091       0.80304248      -0.31324112
F       13.99437700      11.87783700      10.34686800       0.60007444      -0.42266985      -0.49055315
F       16.71491400      12.34094600      10.62677900      -0.57480152       0.23578972      -0.62050597
F       16.12618800      10.32342300      11.44436500       0.78631591       0.29661997      -0.34444249
F       16.50318000      13.33488900      13.41976100      -0.05307683      -1.06497826      -0.27693303
F       16.70612900      11.12394400      13.88255500      -0.50177293       0.96584166      -0.90352429
F       18.62002300      13.53465800      12.10127100       0.68505146      -1.58145996       0.79340341
F       18.82403200      11.34349500      11.56859400       0.01149489       0.59867679       1.08920577
F       19.05616500      12.90204200      14.77132700       0.75544416       1.67511857       0.47324243
F       18.92837800      10.83464200      14.53602200       0.08104375      -2.20367006       0.18549431
F       21.47194100      12.39433700      12.67749600       0.32608995       3.93941628      -2.00438744
F       21.17952600      10.49581400      13.18304100      -1.10580738      -2.80364423       0.73749323
F       21.76313300      13.12990400      15.59604200      -0.46781740      -1.26843687      -0.98881087
F       21.33804000      10.89847900      15.84195000       0.75112830       0.75554340      -0.17061276
F       23.67610500      12.85938600      13.84188600      -0.33103778      -1.55268726       0.87835010
F       23.57574100      10.57357600      13.84624900      -0.03704137       0.41916955       0.43633424
F       24.02436800      12.58030200      16.91543600      -0.44536909      -0.61201362      -0.80291958
F       24.23674700      10.47487200      16.45451600      -0.22106604      -2.17049768       0.76039559
F       25.56934800      11.91641400      15.48522300      -0.41250834       0.01959592       0.39046421
O       25.87289600      20.97113700      15.04656200       2.22514032       1.05329671      -0.23382797
O       26.89102800      23.14282900      15.76590300       1.02957520       0.50196268      -0.42199571
O       24.68982900      23.13417100      14.45312700      -0.25701006       0.42746136      -0.75097558
S       25.63159900      22.58625600      15.37330400      -0.82538794      -1.48751647       1.49038891
H       26.91068300      20.94893000      15.07824100      -2.15497028      -0.37429043       0.01669829
C       24.72391000      22.25201700      17.02276700       0.49256375       0.26803135       0.43322989
C       24.66316100      23.40282300      18.07223500       1.21522943      -0.31412404       1.16982683
O       23.62474900      24.27403500      17.80941000       1.30448940       0.14310453       0.08175543
C       22.30612100      24.24221600      18.36721100       0.73681651      -0.23824152      -3.23345043
C       21.49915500      24.74790500      17.09005200      -0.78711244      -0.69540067      -2.16457438
C       22.27955600      25.22720600      19.48842300      -1.93724102      -1.79660064       2.73498908
F       25.44937500      21.28162800      17.64553600      -0.43881381      -0.53793756      -0.22271103
F       23.46346200      21.86476100      16.76455300      -0.40585175      -0.79914109       0.06185560
F       25.94376100      23.98919900      18.04907100      -2.00618258       0.58183966       0.35505857
F       24.56926300      22.86367900      19.36293300      -0.23305252       0.04964543      -1.19589576
F       21.79594800      23.04044300      18.68145200       0.38161396      -0.33949774       0.78019874
F       22.89360100      24.66414300      20.57837800       0.22510318       0.11899940      -0.26185659
F       22.74767500      26.40958900      19.26907100       0.88725383       1.62240941      -0.21742690
F       20.94132500      25.30018100      19.81523500      -0.29557353       0.30545068       0.01017026
F       22.10572600      24.40698800      15.88036700       0.15851212       0.13386090       0.89241866
F       21.47367500      26.08044800      17.09629600      -0.36706768       0.86935432      -0.14492744
O       20.23604400      24.10342400      17.01823700       1.33209842      -0.85854643       0.31792619
C       19.13455000      24.63053400      16.42652400       0.20324521       1.01962400       0.31744590
C       17.62325200      22.86158200      17.72922600      -0.21116678       1.57371323      -1.65170559
C       17.95708100      23.61195100      16.27569800       2.76928914      -0.22283239       0.79678339
F       18.66334100      25.54515900      17.35343400      -0.35490945       1.07827601      -0.83529800
C       15.92281900      22.94497600      19.70750600      -1.36806404       1.84964970      -1.38323149
C       16.30464900      23.45760700      18.27986500      -0.30810868       2.00971065      -0.97754121
C       14.19486100      22.80492800      21.61748100       0.48083078      -0.98296624       0.77292612
C       14.44918800      23.31893800      20.11653100      -1.76802436       1.23931861       1.16296815
C       12.23234600      21.98572200      23.33422200       1.10768326       2.73899178      -0.60480270
C       12.63517200      22.89343100      22.04036200      -0.52203837      -0.81482328       0.30575047
C        5.45903400      24.68777600      26.62097900       0.29469781       1.55024368      -0.99659668
C        6.29238500      23.80479400      25.53981000      -0.62950432       0.82491897       0.95759202
C        3.18188200      25.47900400      27.53432600       0.38182633      -3.78675599       1.23800838
C        3.93415200      24.61867300      26.43025300      -1.19810640       0.77828841       0.11153703
C        7.79675500      23.98720100      25.71634100       1.67297839       0.39023898       0.05454647
C        8.53601900      22.93855000      24.80086900       0.16672371       0.41679179      -1.99763315
C       10.06228300      23.18347700      24.47305100      -0.15074687      -1.24804905       1.66362163
C       10.79938700      21.90376800      23.89680800      -2.04806894      -2.67828597      -2.64416537
F       18.41990700      22.56542500      15.44342900      -0.96584834       1.64901879      -0.02312810
F       16.98803600      24.41978000      15.78918400      -0.20149891      -1.01478878      -0.80918999
F       19.40373200      25.23565200      15.19252300      -0.16251893      -0.52103872       1.34279215
F       18.66204200      22.88348700      18.61434200      -0.64711020       0.01312085      -0.11165788
F       17.39659800      21.62082300      17.34724700      -0.26676431      -2.04075569       0.38761440
F       16.44359000      24.87736100      18.28310700      -0.63258604      -1.85826752       0.96406246
F       16.78842700      23.57872800      20.54183000       0.08017369      -0.76134690       0.54189037
F       15.96025700      21.60777300      19.73693200       0.82331820      -0.71771630      -0.35562885
F       15.33111200      23.23971100      17.30874300       0.43580562      -0.75623040       1.02745867
F       14.15118000      24.67909300      20.16375600       1.15906059      -0.26873275      -0.24228175
F       14.97187400      23.55273500      22.51440800      -0.92527839      -0.18469007      -1.07615022
F       14.67505600      21.49949200      21.74349500      -0.59542537       0.94752615      -0.34313791
F       13.46795300      22.87171600      19.26210000       1.31577243      -1.09211986       0.14292815
F       12.42070900      24.19834700      22.25915600      -0.23638107       0.83613669       0.34153406
F       11.82380700      22.43610900      21.03564700       0.34870332       0.20223579      -0.10852473
F       12.89301900      22.57611200      24.36124800       1.28559693      -0.03524211       1.12359685
F       12.76974800      20.82529900      22.98213900      -0.36549777      -1.76230777       1.03596953
F       10.70826700      20.81695000      24.77463800       0.65955177       1.38133710      -0.57988099
F       10.07899300      21.46680100      22.67846500       0.24294458       0.78795216       1.95625330
F       10.63610000      23.46475700      25.69253700       0.37386157      -0.02455661       0.32515356
F       10.22357000      24.21893200      23.69057500      -0.12051636       1.29156857      -1.10701837
F        8.48862000      21.78175100      25.47242600      -0.13506160      -0.86711849       0.03330659
F        7.84920900      22.87776500      23.55316900       1.11150341      -0.65517987       1.44932788
F        8.17140700      23.67410600      26.97324200      -0.42995636      -0.75749230       1.04192986
F        8.22571900      25.27243700      25.59908500      -0.42462955       0.48574364      -1.43018858
F        6.09653700      22.48453600      25.73031600      -1.10740661      -0.69663840       0.51782382
F        5.87751000      24.06961200      24.28816200      -0.74851246       0.97692157      -0.21343963
F        5.86764000      24.49772700      27.88989000       0.12147435      -0.95460645      -0.42157610
F        5.65153200      26.07109100      26.39086900       0.58868342      -0.84402844      -0.49620752
F        3.46166000      23.37095400      26.50737500      -0.16290562      -1.16828828      -0.26399009
F        3.59127300      25.17202000      25.19645800       0.00991315      -0.67232039       0.64157822
F        3.81439800      25.19137300      28.74708000      -0.99412483       0.93644161      -0.39388275
F        3.22559000      26.71675200      27.24579000      -0.49740103       2.92779304      -0.34839633
F        1.89603900      25.03335500      27.69828500       0.29509119       0.38110282      -0.29903629
296
Lattice="30.0 0.0 0.0 0.0 30.0 0.0 0.0 0.0 30.0" Properties=species:S:1:pos:R:3:REF_forces:R:3 system_type=Nafion_four_dry_initial REF_energy=-142232.83385414182 al_round=6 source=cp2k_sp REF_stress="-0.00023916418660428423 0.0009458075376787702 0.0004889008020659975 1.8666223656523508e-05 -6.381817137772589e-05 0.0006030878221071348" _cp2k_dir=cp2k_sp_round6 orig_idx=232 dE_per_atom_meV=-6.29539359893848 F_rmse_meV_A=136.52098755518048 pbc="T T T"
O       30.36091800      30.51125600       1.01479000      -1.67989825       0.42991882       0.30283072
O        2.47065800       1.91190500       1.09347300      -0.42409733       0.86736017      -0.26644138
O        2.49238200      29.48167700       1.73701100      -1.19192701       1.34942406      -0.74772622
S        1.93046400      30.59155600       0.94731900       2.34238931      -3.17277959       0.23615276
H       29.81188500       1.34949500       0.96839600       1.01187881      -0.54944273      -0.09363547
C        2.21933100      29.93690300      29.11160200       0.51920090       2.53493564      -2.42047372
C        3.78810100       0.05029100      28.68352300      -0.90827106      -1.66160742       0.31254127
O        4.31561900      29.14901600      -0.39746200       0.67072733       0.66890031       0.20009715
C        5.51229000      28.47365600      29.39817300       1.03691107      -0.74278405       3.19964608
C        5.67423600      27.66458200       0.73158600       1.60851620       2.94349888       1.83654890
C        6.85918600      29.25537300      -0.88074500       0.25823545      -0.21588269       0.36462462
F        1.48954700       0.89234600      28.24699000       0.78606754      -1.85834311       1.12995724
F        1.91579300      28.66718400      28.75624000      -0.65646491       0.64049681       0.43832170
F        4.31932300       1.23669900      -1.22691800       0.24307211       2.14745494       0.47287939
F        4.06678900      -0.36512100      27.41224300      -0.66831101      -0.37942955      -0.38658853
F        5.36223600      27.51538000      28.52451800      -0.28195028      -1.76663340      -2.91046123
F        6.72689100      -0.25107900      27.91874900       0.16965580       1.28900364      -2.38331562
F        6.90787200       0.23752000       0.00350200       0.01787123       0.93842290       0.88473415
F        8.10440000      28.62594800      -0.88307600      -1.44821716      -0.22297123       0.30249802
F        4.55597100      27.07404600       1.09626600      -0.36997303      -0.82384888       0.30313514
F        6.00900400      28.62389600       1.79953200      -0.67520465      -1.70011844      -1.47244775
O        6.77174800      26.85503400       0.48770800       0.11271563      -1.20966505       0.96023974
C        7.54107000      26.30892800       1.54007400       0.39368529       0.36223144       0.65045984
C        9.20680700      24.82358800      30.06460200      -0.40056865      -2.03018229       0.12451956
C        8.11224000      24.91327100       1.14337600      -1.43178935      -2.74905147       1.75585430
F        8.57949100      27.14324300       1.86590100       0.06687748      -0.08403343      -0.70811889
C       11.68372800      24.72415400      29.25644400       0.74964838       0.27021268      -0.57560988
C       10.74537200      24.73681000       0.55157700       0.07077219       1.40886488      -1.35912791
C       14.36020300      24.93323800      28.55302600      -2.08968122      -0.74606323       1.70206014
C       13.23974100      24.47402800      -0.36492600       0.39914374       1.22773630      -0.23240769
C       16.82990700      25.50780100      28.01849800       0.61526143       0.35806471      -0.27633293
C       15.87495800      24.71966900      29.03726500       0.00227903      -0.05173831      -3.14246577
C       24.13859300      24.68552900       0.97211900       0.37647535       0.82119601       1.44834520
C       23.07941100      24.06504700      30.10123400      -1.09242891       0.25424356      -1.65262296
C       26.73422100      24.79132400       1.57226800      -2.02350771       0.68746316      -0.76370306
C       25.49688800      23.84665600       1.08747700       0.37048571       2.47343999      -1.88106549
C       21.53293100      24.71484200       0.29106200       2.53470167       0.44016621      -0.28801500
C       20.74057100      24.53797300      28.92151200      -0.74034201      -0.87650970       2.03716849
C       19.25147900      24.93149400      29.09621200      -1.15989826      -1.03669047       0.10671056
C       18.35264100      24.91752600      27.85346900      -0.35243862      -0.51118111      -1.66946986
F        6.92782600      24.09591600      30.87756600       2.03984861       1.39453715      -0.12016000
F        8.66841300      24.26460100       2.27233500      -0.61515962       1.25602153      -0.59556575
F        6.87273500      26.11866100       2.69877800      -0.60691563       0.20119604      -0.14078642
F        9.05928600      25.90570800      29.30113700      -0.08120779       0.54135507      -1.08441683
F        8.91698900      23.63346300      29.35667000       0.33828058       1.19299504       0.51908108
F       11.03205200      25.93058900       1.18941100      -0.29066169      -0.55067994      -0.00232993
F       11.60447500      25.98273200      28.73133900       0.37465964       0.30778473      -0.00275622
F       11.26386100      23.87067800      28.26697000       0.23865238      -0.26950203       0.95806921
F       11.08791400      23.72473300       1.33923200      -0.03156749      -1.02042207       0.37578218
F       13.43990500      25.25593200       0.76195400       0.12985409      -0.47862272      -0.22366491
F       14.11284700      26.24490100      28.33066200       0.69469824       0.27739377      -0.53282517
F       14.05551300      24.15371200      27.46774000       1.21326922       0.26897289      -0.13612604
F       13.49443400      23.18188300      -0.11889000      -0.52896749      -0.78263615       0.30164545
F       16.17974000      25.22265300       0.20644100      -0.52286781       0.55142402       2.10930028
F       16.19334000      23.40198000      29.03317900       0.02616149      -0.45527196      -0.05913692
F       16.95960500      26.74748600      28.53619200       0.19604457       0.77021155       0.04705736
F       16.28749000      25.77057000      26.77824300       0.43543127      -1.23271910       0.13307671
F       18.96925200      25.75097500      26.95425500      -0.44776331       0.52193192      -0.06862069
F       18.35823800      23.67021100      27.27425000      -0.21352602       0.18169267       0.09286260
F       19.08480700      26.18879700      29.53723400       1.19807554       0.73264670       1.34395995
F       18.76580300      24.01033900       0.00109700      -0.64475456       0.18085655       0.19104789
F       21.27977700      25.27396100      27.97128900       0.72306163       0.34303969      -0.76625565
F       20.81338700      23.17760800      28.67114600       0.07305996       0.68698853      -0.71437850
F       21.61754700      26.05899100       0.60901600       0.12099252      -0.50106948      -0.60005644
F       21.08519800      24.04410100       1.37849400      -0.71452556       0.32829236      -0.41891810
F       23.56994100      24.13940300      28.76165100      -1.29217587      -0.05488997       1.35225227
F       22.92410000      22.77592800      30.49863000       0.34408768      -0.39207526      -0.44592034
F       24.31410900      26.00693200       0.66887400       0.00803316      -0.39246504      -0.89695152
F       23.65197000      24.73017800       2.25699600      -0.52505633      -0.30924717       0.48067034
F       25.81604700      23.23475900      29.88196900       0.09127725       0.87272504       0.31837819
F       25.35566500      22.88940100       1.95441100      -0.64032301      -1.63252465       1.72577085
F       26.91114300      25.90735500       0.74612500      -0.08852257      -1.27391486       0.78249731
F       26.50094100      25.26355000       2.84712700       0.69563361      -0.55448364      -0.99436291
F       27.76051300      23.96281000       1.51803100       1.40921506       0.13720333       0.31984269
O       29.07231000       6.46486300       0.02884700       0.68485966       0.67724714      -0.78395461
O       27.06644600       7.98796800       0.91372000       0.41325550       1.79719045      -1.10335815
O       26.75483200       5.59512600       0.27585100       2.29125572       1.88787275       0.64591104
S       27.65524300       6.69873400       0.73475200      -2.93064028      -3.26669068       1.29797885
H       -0.29262000       7.23483600       0.06139200      -0.66676886      -0.39894011       0.14837272
C       28.17169400       6.29766900       2.52945300      -1.40833060      -1.38448619       1.91980122
C       27.47769500       7.15851800       3.77640800      -0.64782549       0.38002296      -1.63071408
O       26.03320600       7.32191700       3.77980200       1.28397611      -0.18370688       0.48337052
C       25.07926700       6.72183800       4.68739200       0.49985180      -1.65605796      -1.80179118
C       23.77178000       7.27781800       3.96271500       0.27714592      -0.22745986       0.30699848
C       25.26062300       7.04874000       6.19920500      -2.01563242       1.33169475      -0.68439789
F       29.50617300       6.41616400       2.78536000      -0.00942104       0.06739479      -0.44452886
F       27.80184400       4.97753400       2.70841000       0.22561226       0.17817695       0.15867924
F       27.99840200       8.38806500       3.43881100      -0.35104097       0.05605571       1.03483413
F       27.91952000       6.72765600       4.97952700       0.63318254       0.46531520      -0.96973174
F       25.22759900       5.31512700       4.60841700      -0.54037908       1.11488029      -0.42621540
F       26.18897800       6.21947400       6.57826200       1.04223634      -0.34690972       2.32227249
F       25.61979300       8.38261100       6.33777200      -0.06664557      -1.54106793       0.60217966
F       24.05498700       6.80214200       6.91987700       1.89467486       0.62594437      -1.13598802
F       23.95653600       7.18746400       2.63812200      -0.11837000       0.26364197      -0.53052712
F       23.82526400       8.56079500       4.40255900      -0.45094839       0.87830382      -0.47379778
O       22.51628200       6.69338500       4.21579100       1.44146441      -1.13315724       0.66308498
C       21.41174700       7.38411200       3.86195800      -2.37396760       0.32768764       0.18134352
C       19.36653000       5.40853500       4.02369000       1.87011671       2.84598824      -0.13222002
C       20.23504900       6.50800500       3.18710900      -0.61292276       0.83858850      -2.33184625
F       20.84703800       7.90550200       5.02047200       0.26958430       0.38644558      -0.39865266
C       17.69077500       5.00933700       5.84689600      -1.10396082       0.42283389      -0.59142216
C       18.19702700       6.04999600       4.78550900      -1.41204739       0.47186174       0.16102460
C       15.75267600       4.78843400       7.59031400       0.39192923      -2.06259568       0.65971478
C       16.57060500       5.72199000       6.59490200      -2.26291342      -0.06658335       3.17559444
C       13.84478000       4.71622700       9.55106800       0.95492064      -1.20685586      -1.11524745
C       14.42267100       5.45787500       8.26937300      -0.45820816      -0.26201343      -1.58550071
C        6.79262100       7.12886400      12.67429700      -0.36029643      -0.12370298      -0.53852788
C        7.68821200       6.07915900      11.82176900      -0.38116196       0.72498635      -0.30395224
C        4.69367000       7.61442500      14.10379100      -1.48439567       2.00297230      -0.93862139
C        5.47418200       6.57295200      13.25235600      -0.21832164       0.78211781      -0.23906736
C        9.04576400       6.70980000      11.27067100      -0.81388277       3.77253727      -0.26201189
C        9.94125700       5.79591600      10.47970300       1.64207527      -2.62249817      -1.48599181
C       11.57075300       5.93094800      10.26785500       0.35862932       1.86339481      -0.80732645
C       12.30382200       4.64880900       9.88645100       0.01733695      -1.28853261      -0.03100751
F       20.75256700       5.88134500       2.04720900      -0.41560600       0.21353219       1.38133556
F       19.36327000       7.55634700       2.66254200       0.57327326      -2.02121891       1.12877145
F       21.61645300       8.39316600       2.96506500       0.71302404      -0.39262085       0.43127739
F       20.25858700       4.86267100       4.89808100       0.30729724      -0.05494191       0.13220202
F       18.85542400       4.45981100       3.26391000       0.17008517      -0.89385128      -1.17494127
F       18.34405000       7.36728700       5.29027700       0.43388552      -2.26722311      -0.72112816
F       18.57846700       4.52866200       6.70252200       1.01436609      -0.24069281       0.79567473
F       17.14351300       3.93967400       5.15191100       0.35962383       0.34430673       0.24551569
F       17.09529700       6.07281700       3.94864500       1.15382223       0.70045494      -0.99378493
F       17.08235200       6.65867300       7.49582100       0.41463258       0.22078167      -1.39557896
F       16.64279400       4.26660800       8.61173700      -1.32251643       1.30444003      -1.51629998
F       15.33745900       3.69895100       6.84775300      -0.24794230       0.52488818       0.61966779
F       15.61439600       6.24664800       5.76021200       0.71970839       0.01984943       0.78573690
F       14.69717700       6.75027000       8.54708600      -0.32655429       0.15953851       0.19999276
F       13.43244600       5.44594900       7.26206500       0.69065801      -0.07305070       0.90022196
F       14.51945700       5.16337200      10.60224100       0.62932743       0.88471204       0.84065052
F       14.18324800       3.34952200       9.40232600      -0.39976081       0.83061448      -0.12893878
F       12.31920100       3.78236100      10.96119700      -0.82643592       0.07656849       0.08397326
F       11.67222700       4.06991100       8.85563300      -0.23980527      -0.59426940      -0.61666320
F       12.35365000       6.36881600      11.29377500      -0.85958053       0.86365470       0.68537336
F       11.75041300       6.80701300       9.18962400       0.15917649      -0.11943289       0.64735035
F        9.87985100       4.54300300      11.07568700      -0.45780809       0.14069232       0.09064939
F        9.43624600       5.64399700       9.19753600      -0.09697071       0.16768633       0.74241226
F        9.76010400       7.28307600      12.31852700      -0.49848552      -0.84789281      -1.00045180
F        8.63385500       7.83131100      10.35312800       1.11752596      -2.12535785       2.00252287
F        7.94569000       4.96064900      12.50777700      -0.06810801      -0.15127035       1.91634515
F        6.92005200       5.63907100      10.80514800      -0.43415960       0.33722334      -1.06801731
F        7.39482400       7.44326300      13.84150100       1.88392919       1.06216033      -0.20541522
F        6.45675700       8.22920400      11.84172500       0.50642766      -1.35862346       1.54324617
F        5.69429200       5.65106400      14.20831900       0.73854841      -1.96230568       0.20368486
F        4.73206900       6.10213100      12.23530300      -0.67462358      -0.64555983      -0.23067117
F        5.39964400       8.04009600      15.19697900      -0.76155567      -0.18573394      -0.86495928
F        4.29111300       8.71832800      13.33575300       1.02299266      -0.37602489       0.71953562
F        3.51538900       7.04482700      14.46227900       0.35564376      -0.35662386       0.33576347
O       29.01568200      17.57543500      13.53529600       0.62470921       0.59623681       0.62273512
O       30.81578900      18.69285100      14.91249800      -0.21183680      -0.80526237      -0.75485126
O       30.71736700      16.22359400      14.78699200       0.28006155      -7.12879028       3.57771397
S       30.53475800      17.43289500      14.21932000       0.06414132       7.77437480      -4.18501475
H       28.85679100      18.56634800      13.49162000       0.15784415      -1.05859061      -0.00734667
C        1.58525600      17.23915800      12.49311200      -1.00812243       3.00416715       1.29125593
C        3.06554500      17.68621700      12.56130500      -0.73921124       0.94423308       0.35917337
O        3.52978700      17.02235800      13.65274000       1.57066544      -0.16957506       1.24193599
C        4.50659900      15.95942900      13.59279200       0.26235796       2.89076144      -0.31981646
C        4.41384100      15.31524200      14.93037300       1.77790666      -0.18850713       2.28684885
C        6.07874700      16.64058500      13.40630000      -1.87460637      -2.25564543      -0.51514730
F       30.94698200      17.99775000      11.56634400       0.02141421       0.13749284      -0.72543064
F        1.54960400      15.97508900      12.17769900      -0.27654325      -1.75553394      -0.70579770
F        3.23557900      19.08113300      12.69482000      -0.12093853      -1.57268119      -0.14000275
F        3.63006700      17.29625800      11.41210000       0.66832232       0.14413400      -1.00276168
F        4.06699500      15.08861300      12.67227800       1.05738065      -0.52508564      -0.91721644
F        5.82207700      17.84152900      12.92166400       0.90623834       1.31803037      -0.13950653
F        6.79306200      16.63661100      14.53411800       0.16418295       1.01727144       0.29811995
F        6.80531300      15.91721300      12.54200200       0.12635173       0.00095491      -1.13893914
F        3.17724100      15.08475800      15.28969800      -1.67302209      -1.03147833      -0.12014149
F        4.93932100      16.03025100      15.96383200      -0.01753647       1.48698785       0.37934110
O        5.26300500      14.23262500      14.79718000      -0.27838467      -1.41621515      -0.44370456
C        5.89731600      13.62366200      15.86658000      -1.98135858      -1.20356999       1.21290207
C        6.99495100      12.00013100      14.18629600       1.24830719       0.55169862      -0.30619167
C        6.14625800      12.12920900      15.48939600      -0.00612797      -0.64740948       1.13925024
F        7.02964400      14.16022600      16.22139600       1.95356187       1.12760006       0.39577354
C        9.50369800      11.83622000      13.36389400       0.71310220      -0.14754431      -0.31316707
C        8.54513500      11.58267900      14.56615600      -2.46604499      -2.16319626      -1.28074166
C       12.02814700      11.78360200      12.45204400      -0.80708631      -1.86764279      -1.82764208
C       10.98213800      11.22449400      13.49152300      -1.03959839       0.36535996       0.80388580
C       14.42655000      12.10145900      11.45162300      -0.66485339      -1.79038731       0.16741122
C       13.49768700      11.35885600      12.54958900       0.21614186       0.73245798       1.25446909
C       21.62362900      11.71254200      14.95871400       0.17965430      -1.03172670       0.00688336
C       20.66518600      11.71499300      13.69455200       1.79208166      -1.58408197       0.25543963
C       24.02072800      11.67242400      16.04831300       1.09238931      -0.66345265      -2.46126016
C       23.22454900      11.67951300      14.66506100      -0.60556066       1.73992426       0.67524682
C       19.17467800      11.84558400      13.88725200       1.19058386       0.32652550      -1.19639970
C       18.39700400      12.03027600      12.57033200      -0.30928059      -0.04137934      -1.41552764
C       16.77970300      12.04325000      12.74633000       0.42359288      -0.42295884      -0.12715032
C       15.92443800      11.69317500      11.39933400       0.43666231      -0.12407528       0.42470257
F        4.92435400      11.60013500      15.37986400      -0.82629605      -0.55144511      -0.72119552
F        6.74294700      11.39367100      16.54738500      -0.41596698       1.38451550      -1.04979641
F        5.06165200      13.62329500      16.98296500       0.13843386       0.01774010      -0.51275257
F        7.02372100      13.25320700      13.56124500       0.75131342      -0.96390202      -0.12897889
F        6.42595000      11.12670500      13.32581800       0.51256077      -0.34328652       0.31283951
F        8.90679900      12.29542800      15.63549600       0.07676183      -0.28543721       0.27460824
F        9.59996600      13.19244100      13.46156400       0.61979120       0.59090897      -0.66616362
F        8.98389300      11.45832000      12.15432400      -0.50213134       0.42514222       0.44420593
F        8.41238100      10.18540700      14.80917500       0.96315280       1.39682646       0.24892549
F       11.33494200      11.70716200      14.70589500       0.73840649      -0.29420776       1.10350162
F       11.84299300      13.11419200      12.23159300       0.29848196      -0.77065018      -0.31315936
F       11.77982400      10.96714800      11.33056900      -1.92605877       1.14925235      -0.89751716
F       10.89978800       9.83637600      13.53371900       0.14259596       1.42675719       0.02710457
F       13.83546900      11.54728700      13.86884500       1.39516604       0.91330682      -0.18844645
F       13.54410700      10.04030600      12.35651400       1.04581223      -1.16359293       0.05293850
F       14.28423500      13.40277200      11.56482400       0.58460000       2.03639973       0.24286694
F       13.99403000      11.77079300      10.18467500      -0.49060200      -0.26513681       0.36846636
F       16.30376800      12.28629300      10.21394900       1.00196361       0.43972861       1.11515952
F       16.03619700      10.34425900      11.24281200      -0.06094132       0.05761071       0.05868389
F       16.40830700      13.24856100      13.25782600       0.14353287       0.15993291      -0.28961371
F       16.43686800      11.09373900      13.71242200       0.38126223       0.75960729      -1.17192279
F       18.78260200      13.23402700      11.99329100      -0.45321713      -0.69186026       0.29615563
F       18.81420600      10.98957400      11.73388400      -1.08919549       0.72458218       0.15911787
F       19.06254700      12.94307000      14.61006400      -1.94330008       1.87905849       1.54546554
F       18.81860700      10.73195500      14.48064400      -1.38246839      -1.68290490       1.59018114
F       21.11250200      12.69344400      12.96284700       0.95821217       2.96381831      -1.71110991
F       20.91483300      10.61228700      12.97388200       0.15318428      -2.15696802      -0.34984232
F       21.23245900      12.79578600      15.69819300       1.17446973      -0.17849885       0.31285854
F       21.52242700      10.54590100      15.70568800      -0.70791577       0.34402494      -0.06813578
F       23.58603000      12.86077100      13.98455100      -0.33185180      -1.22818882       0.58717161
F       23.64995900      10.58162600      14.01075300      -0.86072107       0.29599467      -0.77122559
F       23.61378100      12.67711200      16.80744800       0.44443527      -0.11388034       1.25969615
F       24.06400500      10.45255300      16.59789100      -1.10034790      -0.52466912       1.08877434
F       25.32394200      11.80665400      15.68642100       0.79652422       1.16429793       0.04790788
O       25.30835100      20.77544700      14.83459600       0.28872616      -0.27294062      -0.57523295
O       26.89079900      22.67270300      15.67196500       1.12435584      -0.49120724      -0.22100330
O       24.65792400      23.02830400      14.60337400      -1.29779167       1.62198981      -1.67715077
S       25.55374900      22.26862000      15.37392500      -1.03903583      -0.57920171       3.19674433
H       25.79556300      20.10450500      15.33590500       0.44330553      -0.26145190       0.35075558
C       24.69273300      22.01714800      17.16655600       0.53270896       0.46449553      -0.47895182
C       24.61637500      23.36630900      18.09047200       0.80471935       0.27837336       0.23130366
O       23.71764200      24.42429300      17.77870900      -0.71409619      -0.36341980      -0.21042218
C       22.36205300      24.37263800      18.21142300       0.32670239       0.44712516       0.61286671
C       21.40182100      24.70814400      17.00110100      -0.84928120       1.19346658      -1.05537879
C       22.16474500      25.41177100      19.41971800      -2.82263285      -2.21773759       1.29695761
F       25.40632500      20.96852100      17.76767100      -0.31220034       1.07705576       0.18115840
F       23.42839700      21.58772700      17.02786900      -0.50040819      -0.37564694      -0.34030918
F       25.77878000      24.07067200      17.96905500       0.36249626      -0.81051205       0.54182609
F       24.44623900      22.90767100      19.38174500       0.49333817       0.09201310      -0.38865570
F       22.12568900      23.13437400      18.66271700      -1.00227574      -0.86642995       0.31280866
F       22.53920100      24.70791700      20.62977500      -0.00984013       2.18225277      -2.17093889
F       22.75392400      26.55184000      19.12151000       0.13932963      -0.01605037       0.81079899
F       20.73288100      25.65089300      19.64764000       2.74959295      -0.54479212      -0.92559052
F       22.06052600      24.41723200      15.85131500      -0.17001832      -0.36816709       0.11517875
F       21.11840600      26.07807200      16.87973000       0.61559825      -0.98850902       1.12970476
O       20.16532900      23.98304500      17.14723000       0.13153045       0.12246320      -0.48880840
C       19.02835500      24.62217400      16.59747300       0.79317304       2.33903094      -0.72856790
C       17.32414300      22.81170300      17.53445600      -2.50275777       1.73865671       0.05434284
C       17.80118400      23.73911900      16.21835400       0.97118081      -3.03376518       2.37805617
F       18.68366200      25.65352500      17.45877100      -0.58929226      -0.91676701      -0.65041921
C       15.85470500      22.95326800      19.78697400      -0.84463265       2.01611527      -2.37236066
C       16.00027700      23.47045200      18.26287400       0.30466649       1.93929893      -0.26004808
C       14.12715300      22.91168800      21.74339600       0.33584986      -0.90493736      -0.96787900
C       14.39262900      23.26670900      20.24272900       0.18680814       0.93788040       0.36235588
C       12.43894000      22.08794200      23.53556300      -0.20578288       2.52943554      -0.22789849
C       12.64925600      22.97841800      22.19805000      -0.50755071      -1.39546429       0.11780487
C        5.53506100      24.75574500      26.45302100       0.75404805       1.86562859      -1.54583887
C        6.34369300      23.84651100      25.46874300       0.06397059       0.91583781       1.93527104
C        3.22113700      25.62209200      27.50724000      -0.07960650      -2.03685842      -0.70239253
C        3.96907700      24.72557700      26.40956900       0.30258338       0.55931217       0.27782520
C        7.89233400      23.80625900      25.76527300       1.71091964       0.12481576      -0.81256636
C        8.71266300      22.72913100      24.90521100      -1.00419789       0.28396654      -2.22883550
C       10.25547700      23.11108500      24.63454800      -0.98127702      -1.52099790       2.20808104
C       11.04497400      21.92316900      24.13135800      -2.46603573      -1.78677799      -2.88527624
F       18.29978000      22.90431700      15.22976800      -0.81014490      -0.00560038       0.57402916
F       16.69624300      24.36719100      15.81603200       0.30281427       0.66253425      -0.61357993
F       19.36809100      25.17180500      15.34908200      -0.35705632       0.21561890       0.62261736
F       18.23685200      22.71382100      18.53277600       0.54998678       0.00076413      -0.74282878
F       16.85992000      21.60960700      17.13265800       0.95250740      -0.56098081      -0.67983932
F       16.16339900      24.86872400      18.32319300      -0.05964548      -0.92737898      -0.27835639
F       16.66738800      23.68609900      20.56400100       0.86249256       0.05849620       0.80600182
F       16.18968800      21.67588300      19.68761000       0.14562215      -1.57230221       1.25481928
F       14.83561800      23.27157300      17.54098200       1.07218661      -0.46427802       0.29535498
F       14.17875400      24.62436200      20.04319700      -0.13773452      -0.61694293       0.24337602
F       14.88627400      23.65833200      22.60904800      -0.10150922      -0.80978957      -0.73149227
F       14.51132100      21.57499000      21.69798100       0.57548852      -0.05726516       1.00535026
F       13.58212000      22.55255200      19.44160700      -0.83257675      -0.36663831       0.11269660
F       12.38106000      24.28517000      22.31153500      -0.65717350       0.92296645       0.34819990
F       11.77801300      22.45849300      21.28767400       0.20606931      -0.34747382      -0.70447409
F       13.14277400      22.74046200      24.47386000       1.00879863       1.08628140       1.37450363
F       12.95942600      20.89466000      23.42683200       0.57590813      -2.26677008      -1.08936055
F       11.13066800      21.01986900      25.13852000      -0.09418826      -0.14757362      -0.38541354
F       10.19785200      21.35767800      23.09137000       1.61064199      -0.14379821       1.10016278
F       10.87125000      23.24540200      25.84059400       0.27921205       1.73794091       1.51245875
F       10.31303600      24.22222900      23.95236400       0.04807603       1.21249789      -1.53805871
F        8.57716300      21.54085300      25.52578000       0.25062396      -0.01912387      -0.23180142
F        8.15425200      22.66199400      23.53266700       0.21989001       0.25276466       2.78423085
F        8.26831200      23.62611300      27.04251700      -0.41331309      -1.12182433       0.76219279
F        8.46330100      25.00180400      25.49993100      -0.51910165       1.44912270      -1.27739717
F        5.85037800      22.63558300      25.72497500      -0.26527976      -2.05865726      -0.90997364
F        6.16614000      24.27247700      24.23383300      -0.66826010       0.27617918      -1.69822765
F        5.93797600      24.39526900      27.65944000      -0.03390000      -0.14343517       1.79884109
F        5.96096900      26.06159100      26.13584100      -0.47828539      -0.33566114       0.79340959
F        3.60200700      23.48414300      26.65285400      -0.51943693      -2.29607706       0.62131484
F        3.53796200      25.05716600      25.15832800       0.17729866       0.23817724       0.10812775
F        3.67535700      25.39974600      28.77266800      -0.30240238      -0.23589462      -0.41063297
F        3.42716800      26.84272200      27.17548600      -0.22465376       2.99737481      -0.43671630
F        1.86931600      25.37990600      27.41034000       0.42661032      -0.01163990       0.41783206
77
Lattice="11.087 0.0 0.0 0.0 9.602 0.0 0.0 0.0 35.79" Properties=species:S:1:pos:R:3:REF_forces:R:3 system_type=PtNafSO3product_initial REF_energy=-214325.4608282295 al_round=6 source=cp2k_sp REF_stress="-0.02193524203686521 -0.008822179903167906 0.0030107897228764608 0.0028520345600795975 -0.0008697917073605257 0.00021527211068789062" _cp2k_dir=cp2k_sp_round6 orig_idx=239 dE_per_atom_meV=-36.99122714982428 F_rmse_meV_A=111.80091634448225 pbc="T T T"
Pt      -0.24070700       0.27402900      24.87280400       0.37523505       0.83288065       0.03996986
Pt       2.48119900       0.29355400      24.98148000       0.56136082      -0.46229930      -0.51892836
Pt       5.45151800       0.42050100      25.02527400       0.01995536      -1.51371190      -0.78763283
Pt       8.17714900       0.20306500      25.03989100      -1.05314502       1.66676660      -0.31658664
Pt       1.14867900       2.63111600      24.80976100       0.77712062       0.39755686      -0.01474939
Pt       3.93879400       2.50846500      24.94542600      -0.30278599       1.61332673       0.02859273
Pt       6.94596000       2.65179300      24.90160900      -0.50777646      -0.01203893      -0.20924308
Pt       9.61186500       2.85676600      24.76782000      -0.22401818      -0.17649493       0.10071475
Pt       2.54461100       5.05174700      24.88606200      -0.26734950      -0.07788849       0.16593850
Pt       5.29235100       5.01138200      24.98289100      -0.08683182       0.37143702      -0.13119261
Pt       8.01431200       5.12836400      24.82075800       0.64761723       0.21639229       0.17019830
Pt      10.86722300       5.32493400      24.53919700      -0.43590178      -0.94078214       0.67008404
Pt       3.84397200       7.50361300      24.92306900       0.35262271      -0.20275310       0.04158863
Pt       6.59058000       7.48121000      24.74711500       0.21276754      -0.06674379       0.34964177
Pt       9.39667500       7.63903600      24.87818100       0.70669912      -2.38273198      -0.62971823
Pt      12.23337200       7.54457800      24.85204900       0.28314738      -0.38653865      -0.16444057
Pt       1.42971900       1.05512400      27.29038700      -0.39518938      -0.34023822       0.24152431
Pt       4.16986600       0.90138200      27.31990500      -0.73722841       1.17879998       0.33087992
Pt       6.80962900       0.96731900      27.34544700       0.83799046       0.09635775       0.30650689
Pt       9.63161700       0.93642000      27.28992100       0.33111389      -0.14925615       0.18739024
Pt       2.83535400       3.45790300      27.30949800      -0.43278354      -1.25859777      -0.81455588
Pt       5.56262500       3.37522300      27.15199000      -0.10360621      -0.18297771       0.85112417
Pt       8.33377600       3.27667600      27.18185000       0.10320460       0.47953134      -0.05856665
Pt      11.09156200       3.33166800      27.09477200       0.24491045       0.38913958       0.09833493
Pt       4.08987500       5.74211100      27.30066200       0.49570410       0.85410871      -0.09511283
Pt       6.91188500       5.72097100      27.24639200      -0.15555587       0.11942261      -0.10423407
Pt       9.79371700       5.76268600      27.10328300      -0.95744238      -0.25101322      -0.49261312
Pt      12.42938200       5.79664500      27.24474600       0.48832709      -0.48601310      -0.77332361
Pt       5.44656600       8.19738500      27.21879200       0.19075581      -1.08893220      -0.05345581
Pt       8.16378000       8.07809100      27.17709700       0.58817280      -0.00033681       0.35198662
Pt      11.08787400       8.17306000      27.15125100      -0.81257150       0.47307068       0.33517315
Pt      13.79591300       8.19402400      27.32470700       0.18544597      -0.30885379      -0.38385905
Pt      -0.00686700       1.54297600      29.54215500       0.00514581       0.07792757      -0.72823057
Pt       2.90711700       1.62536900      29.59092700      -0.30744585      -0.31740528       0.00485424
Pt       5.59484800       1.57487500      29.75010200       0.26172752       0.35993184      -0.31284929
Pt       8.26851100       1.42472900      29.65911500       0.61166240       1.22459030       0.16951130
Pt       1.51956500       3.93023800      29.51079000      -0.32302211       0.29674955      -0.03884114
Pt       4.29328100       4.03535400      29.61334900       0.54820603      -0.41094459      -0.56155520
Pt       7.05515400       3.86296400      29.48688700      -0.40543832      -0.05041779       0.31086851
Pt       9.84837700       3.98778000      29.35409300       0.04243966      -0.91391617       0.38351812
Pt       2.85073100       6.30584600      29.59068700       0.61785053       0.39799086      -0.51506656
Pt       5.67225000       6.49506400      29.56042700      -0.17723952      -0.61688431       0.23189707
Pt       8.37308000       6.16732200      29.48584600      -0.21633418       1.39205192       0.22783524
Pt      11.11803900       6.39308800      29.43577700       0.08001274      -0.58816457       0.34487546
Pt       4.14992900       8.80090500      29.60466100       0.02574343      -0.70019320      -1.41153317
Pt       7.08208300       8.80181200      29.47841100      -0.98493776      -1.58311472       0.29443093
Pt       9.79442500       8.71355500      29.49488900      -0.93588779      -0.04567617       0.17627485
Pt      12.41255400       8.72511200      29.52294600       0.69214102       0.52213761       0.01607608
Pt       0.21213900      -0.43010500      31.93215200      -1.24658969       0.27748170       0.18365597
Pt       2.81430300      -0.45920400      31.80232500       0.21326942       1.23735686       1.07250028
Pt       5.50855300      -0.35943600      31.82886400       0.84078525       0.45418592       0.64886730
Pt       8.28878600      -0.57617800      31.95772300       0.47907832       1.56056975      -0.18733985
Pt       1.29106200       2.05096600      31.78823700       1.03219310       0.10280454       0.46891577
Pt       4.20999300       2.06121600      32.03879300       0.02483326      -0.14566380       0.17072075
Pt       7.05256100       1.86549700      32.29275300      -0.09259623       0.30523728      -0.84344428
Pt       9.70393500       2.05353200      31.81381300       0.07893390      -0.47541964       0.63379960
Pt       3.08658200       4.47721400      31.95907500      -0.68498513       0.15583766       0.05369029
Pt       5.80041100       4.36376500      31.95348700       0.11130152       0.08553649      -0.33077862
Pt       8.54576500       4.41957400      31.85654700      -0.51264716      -0.46351440      -0.20133179
Pt      11.32067500       4.51778100      31.72551900      -0.11590431      -0.15509512       0.73464856
Pt       4.39909700       6.87371700      32.01503200       0.24544678      -0.51942458      -0.23751081
Pt       7.21563600       6.69331400      32.02398800      -0.86252341      -0.29539766      -0.41398518
Pt       9.84298500       6.81161100      31.79085500       0.46724764       0.35437158       0.17575445
Pt      12.67914900       6.79975800      31.77937500      -0.44217733       0.07208757       1.05109790
S        6.42277500       3.59858800      21.35939000      -4.49599485      -0.21285188      -2.35242793
O        5.36029600       3.16568500      20.41305600       1.52670112       0.72639532       1.81929114
O        7.04439800       2.68824400      22.24972500       1.02727869      -1.11143450       1.59892444
O        5.75014100       4.89716200      22.14612800      -4.10525604      -4.45625485      -5.38348625
H        6.33912200       5.31453100      22.63756200       5.25622126       3.62599878       4.41922736
C        7.63886900       4.18084600      20.16549900       2.63295896       1.28219382      -0.91683129
C        7.26587500       5.59744900      19.65185100       1.12371358       3.51444786      -1.83882227
O        7.93670100       5.83382800      18.42799900      -0.81082418       0.36599708       0.74503325
F        7.77695800       3.29970300      19.12641100      -0.89098450       0.10146962       0.66529408
F        8.94628900       4.32065900      20.66083200      -1.18091857      -0.39751160       0.61773895
F        5.97322800       5.91640900      19.46363500      -1.01652479      -1.14493546      -0.15691187
F        7.63776800       6.61511200      20.63646700      -0.01706338      -1.57160647      -0.76835470
H        7.50390200       6.62575300      17.95486800       0.59883825      -1.31762208       1.13312330
70
Lattice="25.0 0.0 0.0 0.0 25.0 0.0 0.0 0.0 25.0" Properties=species:S:1:pos:R:3:REF_forces:R:3 system_type=simple_anti_0_initial REF_energy=-32796.048465829066 al_round=6 source=cp2k_sp REF_stress="0.00022127497682693082 0.0005048853846778795 0.0006875178938541431 0.00042244683322163593 6.660123687148968e-05 -0.0003138819711641108" _cp2k_dir=cp2k_sp_round6 orig_idx=303 dE_per_atom_meV=-11.747828445160328 F_rmse_meV_A=136.164460518308 pbc="T T T"
S       10.14683700      10.80805200      17.90318900      -1.72293235      -0.11450255      -1.19479584
O        9.93728300       9.39778900      17.81264100      -0.67784209      -0.92456260      -0.44661814
O       11.28365600      11.32587400      18.49890100       3.26939086       1.63998290       2.12556457
O        8.85767600      11.53248200      18.51492500      -0.31612847      -0.27816664       0.29650324
H        8.15938300      10.89683600      18.26995200      -0.69567115       0.14315801       0.26560937
C       10.16505800      11.66463100      16.26253700      -1.48613579       1.08855682      -0.60493485
C        8.96847700      11.23817200      15.28841800       2.79911343       0.56599138      -0.86535883
O        9.13901100      12.06659300      14.13675500      -0.86854442      -0.14714990      -0.58014839
F       11.37835100      11.36796700      15.78413400       0.29544137      -0.31567801      -1.02486699
F       10.09483200      13.03701700      16.33329300      -0.16363170      -0.06682092       0.63802598
F        9.31749800       9.97341800      15.01564000      -0.84737910      -1.34253093      -0.74358469
F        7.75592800      11.29433200      15.83016700      -0.24621657       0.14597748       0.69709605
C        8.49790900      11.78267200      12.87941200       0.00513861      -0.26769351      -0.33905808
C        6.94123700      12.30360500      12.78204300       3.58686144       1.77602409       5.55911780
C        9.45778200      12.45730100      11.72311400       0.12179625      -0.20651873       1.89888067
O        8.73443000      12.26692700      10.58084900      -0.21104131       0.49998396      -0.63789177
F        6.34934300      11.92163700      13.98249600      -0.30157500      -0.16494605      -0.85266683
F        6.29901900      11.89689200      11.81423800      -2.49353574      -2.41055235      -4.35203209
F        6.90654400      13.66089500      12.82653600       0.32991935       0.66267566      -0.13814487
F        8.45249400      10.40458400      12.62764500       0.27990420       1.01666363       0.22216801
F       10.67090800      11.86877000      11.71087200       0.20137190      -0.73419656       0.33539683
F        9.76601300      13.73070600      12.12467900      -0.68753052       0.57063582      -0.51553296
C        8.91209400      12.56441200       9.17524100      -2.33118650      -1.77390088       0.28736502
C       10.38135600      12.58385800       8.74888700       0.52355840      -0.78473931      -0.99564383
F        8.18226500      11.47296900       8.60894700       1.53434449       1.10511679       0.13736377
F       11.00048500      11.49312400       9.33858200      -0.21280045       0.67072425      -0.05690829
F       10.81594500      13.79097600       9.17332800       1.00190396       0.53056106       0.87620117
C       10.93704800      12.48938500       7.26688800      -2.12158090       0.97621195      -0.48552819
F       10.44668100      11.36743700       6.64956800       1.08082963       0.39073829       0.60370535
F       10.54198800      13.54858100       6.49285700       0.23090976      -0.38754549       0.30457393
F       12.25920800      12.61407900       7.40490500       0.47664348      -0.90514511      -0.35980843
C        8.04864700      13.85520400       8.89414200      -0.90700916       1.09647634      -0.80848551
F        8.38197500      14.45097800       7.69553300       0.04010201      -0.91318598       0.69861198
F        8.23956900      14.77724200       9.84351300       0.71738257       0.36491721       0.74237833
F        6.68588000      13.61456000       8.89890100       1.04546616      -0.57035711      -0.47317712
S       13.92437300      16.42019800       8.78594300      -0.50052749      -1.19110477      -1.02320812
O       14.68023700      17.48642300       9.35854400       0.45644489       1.18067277       0.67295339
O       13.73581300      16.26875000       7.35860300       0.42535305      -0.53833145       0.52707722
O       12.42653800      16.34400600       9.42452700      -0.05254101       0.45804463      -0.51619476
H       12.48443500      16.94727600      10.18455300      -0.41140071       0.17426321       0.29655672
C       14.52985500      14.81121000       9.67461400       1.28309782       1.84011656      -0.44472426
C       14.42575100      15.03736000      11.22500100       4.26331514      -1.99601747       0.08913193
O       14.38662200      13.73081900      11.82574900       0.05477684       1.37315071      -0.61790813
F       15.78669000      14.49126800       9.24489000       0.17067344       0.88121225       0.41432559
F       13.78866500      13.83848900       9.27937100      -2.36099433      -2.45941977      -0.52447834
F       15.63809000      15.75984500      11.54144300      -2.14262641      -0.79145760      -0.32387880
F       13.38204800      15.70175700      11.58187300      -1.42645225       1.42225261       1.67941232
C       14.66003700      13.51680900      13.19791800      -0.65654770       0.31974190       0.52346070
C       13.33329900      12.77217600      13.78056200       2.42489139      -1.80391542      -1.78647974
C       16.04897300      12.76455300      13.24251300      -0.34333486       2.80266464      -1.35590735
O       16.20367200      12.09745500      14.33854500      -0.19558486      -1.22569433       2.90665291
F       12.31040800      13.51402900      13.48308200      -1.83828336       1.79553826       0.47252612
F       13.49753300      12.41512400      15.03633400      -0.14271732       1.18884168       1.69427432
F       13.09430500      11.56932500      13.15913800       0.61785722      -0.08304921      -0.80355670
F       14.83269800      14.69637700      13.92494300      -0.57090476      -0.60370124      -0.26102973
F       16.96413900      13.81131100      13.19121400       0.17398759      -0.24742293      -0.61626365
F       16.11474100      12.02458400      12.14231300       0.49755684      -1.04201934      -1.07285304
C       17.17358200      11.17326700      14.82738000      -4.09738075       0.99073251       3.14664793
C       18.31244500      10.92536400      13.98642800       4.17563126      -0.75416786      -0.58296220
F       17.58290600      11.70617000      16.08041200      -0.21012856      -0.49647492      -1.50243350
F       19.02644100      12.12889100      13.87377000      -1.17630344      -0.00991212      -0.69417888
F       17.89823700      10.32170000      12.83883900       0.45052621       0.81750082      -0.34175826
C       19.51543400      10.01652000      14.53630400       0.19076507       1.14000974      -1.66220238
F       19.85489900      10.42113800      15.76596600       0.46081525      -0.86275070       0.05146063
F       19.16510000       8.74270900      14.41739700       0.40102425      -0.69967436       0.83318404
F       20.61681000      10.23369500      13.66621200      -1.14294029      -0.58283056       1.33717223
C       16.09896300      10.01730200      15.23067100       0.79413875      -0.67367176       1.65523469
F       16.83416000       8.89743100      15.65636500      -1.28778082       0.67389493      -1.04245591
F       15.14332500       9.73850800      14.29194400       1.39246021      -0.41366482       0.83174782
F       15.44528800      10.46969800      16.35459000       0.15906028      -0.14885763      -0.98299041
252
Lattice="11.099 0.0 0.0 0.0 9.612 0.0 0.0 0.0 33.0" Properties=species:S:1:pos:R:3:REF_forces:R:3 system_type=Close0.75Pt REF_energy=-252983.62891327785 al_round=1 source=cp2k_sp stress_missing=T _cp2k_dir=cp2k_sp_round1 orig_idx=433 dE_per_atom_meV=-13.842804236489991 F_rmse_meV_A=154.84968559003684 pbc="T T T"
Pt      11.06747900       9.25827800       0.00231000       0.17490085       0.28291547       0.02815718
Pt       2.79683700       9.26279600       0.00198000      -0.23588999      -0.00590068       0.21326788
Pt       5.51664700       9.26068100       0.00297000       0.37430585      -0.10882195       0.04108263
Pt       8.34711400       9.26097000       0.00231000      -0.23490680       0.14169453      -0.18622193
Pt       1.35818500       2.05168100       0.00132000      -0.00319228       0.09396714       0.12781212
Pt       4.19653200       2.05120100       0.00231000      -0.26813780      -0.23184359      -0.22864051
Pt       6.90923800       2.05293100       0.00000000       0.45760086      -0.05481695       0.05108731
Pt       9.74403400       2.04850900       0.00132000      -0.29608003       0.04917698      -0.10534890
Pt      11.06747900       4.45227800       0.00231000       0.16721274      -0.06392071       0.00246826
Pt       2.79683700       4.45689200       0.00198000      -0.30652900       0.26575850       0.29948520
Pt       5.51664700       4.45468100       0.00297000       0.40606309       0.34025468       0.13004795
Pt       8.34711400       4.45497000       0.00231000      -0.19810660       0.05772384      -0.05684401
Pt       1.35818500       6.85768100       0.00132000       0.34338474      -0.04216455      -0.40820122
Pt       4.19653200       6.85720100       0.00231000      -0.14112066       0.08384214       0.01724850
Pt       6.90923800       6.85883500       0.00000000       0.25181695       0.01662784       0.00250374
Pt       9.74403400       6.85450900       0.00132000      -0.41214427       0.04128935       0.01270536
Pt       1.38193600       0.68821900       2.37237000      -0.15727285      -0.14568849       0.29963998
Pt       4.16712000       0.69168000       2.37963000       0.00084744      -0.19999996      -0.01248014
Pt       6.93188000       0.68687400       2.37171000       0.06571894      -0.20086025      -0.06718550
Pt       9.71717500       0.69196800       2.37963000       0.19207736      -0.21133235       0.45908850
Pt      11.09367200       3.09573700       2.37963000       0.00520906      -0.22741718       0.73946115
Pt       2.77919000       3.09045000       2.37105000      -0.33153864      -0.23297385       0.21852630
Pt       5.54550400       3.09429500       2.37963000       0.21306425      -0.34396992      -0.21885746
Pt       8.32902300       3.08910500       2.37039000       0.15744151      -0.08960809       0.20393220
Pt       1.38193600       5.49421900       2.37237000      -0.07713721      -0.10241425       0.57490539
Pt       4.16712000       5.49768000       2.37963000      -0.04415613      -0.26211936      -0.16923002
Pt       6.93188000       5.49287400       2.37171000       0.41236127      -0.30216841      -0.12241640
Pt       9.71717500       5.49806400       2.37963000      -0.03528479      -0.20132562       0.64044333
Pt      11.09367200       7.90173700       2.37963000       0.04166627      -0.30228771       0.44133812
Pt       2.77919000       7.89645000       2.37105000      -0.06358544      -0.15938578       0.41925903
Pt       5.54550400       7.90029500       2.37963000      -0.14454126      -0.16561762       0.04887462
Pt       8.32902300       7.89510500       2.37039000       0.24191820      -0.27046208       0.05053504
Pt      11.14008000       1.40959200       4.92490700      -0.24377299       0.11118222      -0.52920352
Pt       2.74347200       1.42508000       4.70769600      -0.11063406       0.11317020       0.02721410
Pt       5.53640600       1.41285500       4.71764300      -0.25761684       0.29934379      -0.31944982
Pt       8.35748800       1.47453900       4.65616200      -0.18481554       0.13842563      -0.26047797
Pt       1.41922300       3.81011700       4.84881200       0.06620180       0.04476188      -0.10341800
Pt       4.15017800       3.79828700       4.63749400      -0.13109799       0.09763097      -0.08095222
Pt       6.95742900       3.86952400       4.66150200       0.14189611       0.04519948      -0.27716957
Pt       9.76757200       3.81950700       4.82906800       0.03886737      -0.07127818      -0.24566327
Pt      11.17838100       6.19043600       4.86294300      -0.01811239       0.11023349      -0.19981484
Pt       2.81891500       6.18694100       4.74655200      -0.10959791       0.07493892       0.10246824
Pt       5.59189800       6.26621000       4.64844800       0.29947800       0.15202266       0.06566084
Pt       8.38073500       6.22406700       4.78091800       0.02886064       0.14232034      -0.02691020
Pt       1.37832100       8.57006900       4.74384200       0.03339400       0.04464207       0.01122749
Pt       4.13237700       8.59595600       4.77599400       0.02181324       0.00954188      -0.20207947
Pt       6.93891100       8.63587400       4.63117600      -0.27579249       0.30882757      -0.05598372
Pt       9.74408000       8.62438000       4.74344100       0.05864327       0.13589104      -0.26351547
Pt      11.17687400      -0.27387500       7.18676000       0.56928959      -0.13450984      -0.60248613
Pt       2.66848900      -0.11358700       6.98318800       0.18899358      -0.12647412      -0.58455835
Pt       5.38964700      -0.12292500       7.08104500       0.18135483      -0.27968925       0.04335909
Pt       7.98698200      -0.03242200       6.87275300       0.39393571       0.65800191      -0.40899261
Pt       1.26265100       2.12930400       7.36675100      -0.19495340       0.77222215      -0.75734729
Pt       3.98479900       2.24531300       6.98776800       0.10326939       0.19713266       0.21655838
Pt       6.76785600       2.35355800       6.93541400       0.14596359      -0.00170053       0.47596060
Pt       9.55126500       2.19580300       7.13563300       0.08641684       0.24419003      -0.26116651
Pt      11.10598900       4.69695600       7.16600700       0.73846356      -0.11637225       0.07084367
Pt       4.08705700       6.51283800      15.77020800       1.44441347       1.43531896       0.32922721
Pt       5.47955700       4.70704400       6.86999500      -0.07200169      -1.00843044      -0.22400532
Pt       8.24406200       4.67663700       7.15421500      -0.22313320      -0.37392636       0.38008724
Pt       1.57036100       6.46638300       8.56410300       0.07353561       0.33092311      -0.21307248
Pt       4.12238400       7.32379800       7.74689000      -1.69031431      -0.20305597       0.79003887
Pt       6.81407300       7.09610400       7.02719800      -0.24531154       0.18175747       0.50785925
Pt       9.64383500       6.94026000       7.10235300       0.19649349      -0.21341752      -0.07720252
O       14.82576500       5.74497100       6.61223800      -0.62711525       0.65738690      -0.21625345
O        7.85872200       4.20611200       9.18035500       0.69357107       1.04010130      -0.81358760
O        4.17614500       2.80681700       8.90328600      -0.00516535      -0.47015504      -0.60658087
O        6.99509100       3.10446600       9.21637200      -0.30437287      -1.02519764       0.23920209
O        3.49593900      -1.18867500       9.51929300       0.31465317       0.32906421      -0.08879717
O        4.80339500       4.01784100       8.87301700       0.00979642       0.65680943       0.11242407
O        9.34157700      -0.82013400       7.97977500      -1.19317810       0.06946607       1.21692276
O        3.35442100       5.89807200       9.15739200      -0.24341098      -0.00791334       0.33894547
O       11.12675600       7.53201600       8.34914600      -0.12471702      -0.50811636       0.19258078
O        6.23140600       8.94957500       9.48353900      -0.35560365       0.97863187      -0.35539642
O        2.22756200      -1.53051500       9.74277100      -0.07387603       0.08345956       0.52532784
O        6.72237300       7.79175800       9.43343500       0.53605705      -0.95712819      -0.51641331
O        8.48770300       0.94306400      13.18498800       0.12705159      -0.07220378       0.32885646
H        7.76083100       1.25683100      12.59125100      -0.00145267       0.02419717       0.01317742
H        9.27712200       0.65180600      12.62830600      -0.05553429      -0.01569247      -0.00466964
O       -1.81173600       1.73454900       9.10751300       0.46792127       0.21155450       0.08867221
H        3.71315500       4.98677000       8.91664200       0.26025171      -0.24881596       0.20561782
H       -1.65293000       0.77174100       9.20543500       0.00059033       0.12390970       0.09257823
O        5.18684900       7.88466000      16.51002300      -0.01222508       0.33463373       0.49138259
H        6.55204200       8.82159400      15.45039300      -0.31877619      -0.06536773      -0.39505774
H        0.06098200       2.73261700       9.35469800       0.01790414       0.15611380       0.17516053
O       -0.37864300       9.80801300      11.99626000       0.15539749       0.19604817       0.18054391
H       -0.48153100       8.86568400      11.70144000      -0.01968488      -0.09856376       0.03429081
H        0.09956100       9.77559100      12.85055900      -0.04303307      -0.01415495      -0.11383457
O        7.39759100       4.71143400      11.92084100       0.10213657       0.01835254       0.00756881
H        6.80407100       5.44540700      12.15673000      -0.13262214      -0.05935186      -0.11106909
H        7.63568900       4.85806700      10.97537000      -0.08922706       0.01726702       0.04927108
O       10.11299200       7.29079400      11.19043700       0.06695359      -0.26997614       0.01973219
H       10.39612400       7.01408800      10.29783600      -0.02713440       0.00416519       0.20991773
H       10.08661700       6.49609600      11.77333400       0.03231774       0.19097539      -0.11117914
O        6.63056200       2.17331300      11.71313000       0.03453197       0.05612924       0.26266289
H        6.77314000       3.14950500      11.89953100      -0.05136859      -0.10333059      -0.08260338
H        7.47817100       2.45345800       9.80668200       0.18692487      -0.03874653      -0.44912136
S        3.22699000       4.39183300      12.80659600      -1.38461578      -1.04005656      -1.16634864
O        5.50395100       8.72093900      15.39767100       0.28160112       0.44614248      -0.27778046
O        0.90247800       3.17956800       9.07495200      -0.34045214       0.03615177      -0.37799693
O        4.26386800       5.48293900      12.85798900       1.54366629       1.07250851       0.73657432
H        5.67993200       2.05694500      11.55874200      -0.01669006      -0.02787847      -0.06100714
C        2.78945900       3.88150200      14.48705200      -0.11778687      -1.23065913      -0.74221686
C        3.59624000       2.73890000      15.22085500       0.09928984       0.17170137      -0.74592491
O        3.43187400       3.00891700      16.57594800      -0.51270063      -0.22860143       0.65955589
F        1.46750600       3.51524000      14.50934400       0.26404306      -0.51879158       0.13487751
F        2.84664900       5.01448400      15.33474300      -1.52825869      -1.02159706      -0.00301745
F        3.08269100       1.51818700      14.87666200       0.19344262      -0.09135336       0.24703212
F        4.89485300       2.70554900      14.84080800      -0.22652398       0.27076032      -0.29876221
C        4.00960800       2.29398500      17.60898300       0.58131670      -0.15275439       0.69051866
C        5.37402600       2.93828700      18.01602600       0.74572127       0.12185796      -0.67398646
C        2.98836400       2.34321900      18.82902200      -0.74986692       0.25760810      -0.88223863
O        3.58372400       1.86908300      19.96555400       0.40103247      -0.37274519       0.26401015
F        6.22418000       2.96904600      16.96068400      -0.31518642       0.36291998       0.02185952
F        5.98774000       2.21695400      18.98637100       0.14768675      -0.27307329       0.43581282
F        5.19891700       4.21300500      18.44981700      -0.35805494      -0.14234451       0.33334869
F        4.25622100       0.97881500      17.31974400      -0.04763895       0.07484482      -0.15467295
F        1.92065200       1.56347800      18.47453100       0.08644461       0.05252250       0.31175605
F        2.50817400       3.61749300      18.96291000       0.30788911       0.22927917       0.40444279
C        3.36787100       2.15089300      21.33739600       0.09447056      -0.05098035       0.15072528
C        1.89409800       1.84102400      21.76998600      -0.52433951      -0.29549588      -0.08380768
F        4.19139800       1.24763800      21.96204300      -0.14375964       0.08494206      -0.01830986
F        1.67052300       0.52701800      21.42768000       0.32447633       0.14193570      -0.09265639
F        1.03015700       2.63884700      21.07031500       0.25508328      -0.09376865      -0.27511063
C        1.48888300       1.96924800      23.28013500      -0.14329479       0.07321577       0.72118009
F        2.32351900       1.26946500      24.07792300      -0.23492223       0.19897975      -0.37261458
F        1.44979200       3.26414800      23.69968900       0.26196458      -0.12178751      -0.48954219
F        0.22060100       1.46893700      23.43854700       0.31625445       0.26217849      -0.02100386
C        3.90183800       3.56492500      21.76396800       0.50429416       0.53150671      -0.03229460
F        4.06104100       3.61711900      23.12419600       0.02482709       0.08557146      -0.34099567
F        3.07383800       4.57362100      21.40227700       0.07134246      -0.35071907       0.26108423
F        5.11558400       3.77889100      21.21946900      -0.26425389      -0.22004942      -0.32313524
O       -1.27695400       2.47762900      15.75855600       0.07209631       0.23805280       0.27781389
H       -1.38141000       2.74857000      16.70744600      -0.01917786      -0.08504850      -0.28096349
H       -2.11053800       2.02404700      15.53112400       0.00807121       0.01360422      -0.12902157
O        1.20173200       6.97090300      30.58076700      -0.08104683       0.01607351      -0.33072925
H        0.75940700       7.80327900      30.33224500       0.01440229       0.00300151       0.23367576
H        2.00554800       6.91430500      29.98811200      -0.03008499       0.03276666       0.28306665
O        9.42045500       5.22304300      25.79758500       0.00793802      -0.07007851      -0.07046829
H        9.59149400       4.93760400      26.71915500      -0.06149154       0.04729442       0.12324738
H       10.22502200       5.74686600      25.53029200      -0.18170450      -0.07327747       0.13949573
O        9.01367900       4.54226900      28.65268800       0.08441241       0.01471854      -0.08070539
H        8.59299900       3.66026500      28.46564900       0.04175935       0.11125524       0.10761816
H        9.62994700       4.37417200      29.38609600       0.01384076      -0.00644473       0.13981557
O        9.93066800       5.43772800      13.43373700      -0.11685202      -0.05825349       0.08490400
H       10.66414800       5.63060400      14.07974000      -0.10249652      -0.08109106      -0.16511420
H        9.87202400       4.46893300      13.35157300       0.01483115       0.04815265      -0.03230489
O        7.06568400       7.78057600      22.24140600      -0.04678842      -0.05300072      -0.14133767
H        7.35116600       8.49175800      21.60970800       0.01706441      -0.07380352      -0.01337796
H        7.45986800       6.90483200      21.96604200       0.02081308       0.04998482      -0.00595468
O       11.45207000       0.53672700      14.88955100       0.08122835       0.10912997       0.19190047
H       12.38909000       0.74336700      15.04282900      -0.12173660       0.03982331      -0.07442213
H       -0.16198600       1.34997000      15.18717800       0.13207038      -0.08048273      -0.11576599
O        4.47457700       6.14103800      26.40370800      -0.04749496      -0.09542342      -0.21377285
H        3.94715400       6.23241000      25.55760700       0.16201036       0.00010387       0.19909493
H        5.39978300       6.44767600      26.20874800      -0.00274182      -0.02074675      -0.00383917
O        0.15201600       4.89042700      17.65233200       0.00893870      -0.03208377       0.38213795
H        0.96319600       4.45215600      17.96375600      -0.13684955       0.12700839      -0.08604660
H       10.87550800       5.34490500      18.44146900       0.16604803      -0.06863046      -0.12416321
O        4.04042200       2.26464900      30.90617100       0.02224570      -0.01892795      -0.50957263
H        4.20879100       3.23388500      30.58997400       0.01682941       0.02126765      -0.00830004
H        4.71183300       1.73662500      30.39074300       0.01188004       0.01355331       0.19844238
O        3.00095200       6.40390200      17.63676200      -0.34174334      -0.00270069       0.87504315
H        3.53787100       6.76947100      18.41594400      -0.04422401      -0.21828153      -0.49559148
H        2.22484500       7.02635400      17.68784900       0.16601203      -0.10887697      -0.32734002
O        7.82500500       7.15946000      28.78960300       0.18164074       0.01402537      -0.17193174
H        8.52956800       7.87152900      28.77772800      -0.02780957      -0.12085163       0.08258538
H        8.23836700       6.27736600      28.95155000       0.01992657       0.01803423       0.07889945
O        3.86953800       7.83827800      19.60357400      -0.01727524       0.27655919       0.20133642
H        4.47153400       8.47275700      19.16810900      -0.07473992      -0.02786562      -0.06966610
H        2.95297100       8.22500400      19.53498700      -0.04683110      -0.08446486      -0.15797168
O        8.00505300       0.35815000      20.88014600      -0.17121080       0.00995377       0.24577485
H        7.68038500       0.46820600      19.95297600       0.05511623       0.00675429      -0.16157739
H        7.90584900       1.21290300      21.37253500       0.01260046      -0.08151683      -0.10693476
O        5.62490600       1.08515400      29.04120900       0.04763843       0.11972240      -0.21693119
H        5.63197700       0.09509400      29.26267400       0.01196437      -0.09834419       0.12206827
H        4.96715100       1.23056400      28.33850400       0.00993680      -0.04180100       0.06496767
O        7.38874100       1.67767300      25.06578700       0.05106777       0.05941614      -0.04591374
H        6.41784900       1.73672900      25.01574400       0.07951549      -0.03228020       0.07180732
H        7.61140700       0.69269300      24.87043600      -0.08950268      -0.00426957       0.05977404
O        8.30218100       2.64595500      22.56982600      -0.02140186      -0.17386984       0.06118763
H        7.96819200       2.40853000      23.47991300       0.03695961      -0.00984475       0.10220599
H        9.27305700       2.59631300      22.65291400      -0.15240164       0.02661349       0.05571890
O        2.97441800       6.27765700      24.13901200      -0.15714584      -0.12926685      -0.26909271
H        2.93862000       5.36889300      23.79216100      -0.00332341       0.18441496       0.10414048
H        3.46489300       6.81102800      23.41558500      -0.03791040      -0.09441863       0.11839777
O        7.96497900       2.03325600      27.88652400       0.09772198       0.02832482      -0.35449653
H        7.13031100       1.72813100      28.33772500      -0.05464212      -0.05138453       0.02548786
H        7.80649300       1.92551100      26.91027400       0.02011631      -0.00288683       0.28332273
O        1.23260200       8.16617500      18.87211800       0.09465260       0.17296686       0.17003478
H        0.52617700       7.52241900      19.13936600       0.06017102       0.03774637      -0.14367943
H        0.73118100       9.01781900      18.88347700      -0.00430814      -0.14566226      -0.12310443
O        7.20135400       6.77943500      26.15537700      -0.08876734      -0.07520272      -0.09297315
H        7.95338700       6.15451700      25.91708200      -0.03075862       0.02489548       0.10269810
H        7.38211200       6.98509700      27.11378900       0.06666922      -0.03104093       0.15135725
O        8.14355700       6.11160200      15.45439000      -0.04544477       0.03042387       0.24567150
H        8.72713200       5.80551600      14.70583300      -0.05006504       0.03499169      -0.08374238
H        7.27903300       6.31194800      15.06131100      -0.00823987       0.05252147      -0.03373339
O        8.02599700       5.73599500      18.09993100       0.06064667      -0.10116263       0.43975740
H        8.10684000       5.85501900      17.10615500      -0.04775310       0.06923981      -0.26274825
H        7.07538800       5.82568600      18.28832200       0.13799934       0.05418189      -0.10733842
O        8.09754000       5.37133100      21.54590200      -0.03302685      -0.17231123       0.07076139
H        8.07424900       4.48921900      21.98535600       0.00652649       0.09223165      -0.03351176
H        8.85755800       5.34625400      20.93293000      -0.03150939       0.00216333      -0.00707876
O        0.45415000       6.89155200      25.18348300      -0.01763571       0.20229133      -0.21529854
H        0.08949800       7.56851900      24.58694300      -0.01151649      -0.09585845       0.00339900
H        1.33705000       6.67288200      24.78575800      -0.11565234       0.05364453       0.05637453
O        5.65597100       8.20805100      29.83111500      -0.04985832      -0.17256269      -0.18765866
H        6.48311200       7.72004800      29.52201400      -0.06818720       0.03431497       0.16489360
H        5.71993200       8.24659600      30.82190600      -0.05778966       0.04534758       0.12345616
O       10.13234700       8.52083700      16.60118500       0.11535050       0.04887410       0.09388178
H       10.47468500       7.64621300      16.30044500      -0.02895217       0.08396812      -0.11042735
H       10.73817500       9.14767300      16.11833400      -0.03770626      -0.05874765      -0.14762967
O        8.03806500       8.81420300      24.54012300       0.15351904       0.13337342      -0.12188881
H        7.64528700       8.44516600      23.69813900       0.02530686       0.02951678       0.16127554
H        7.75646000       8.14024400      25.22285000      -0.02244676      -0.05104720       0.07600593
O        4.68873100       4.47251100      29.86081800      -0.02609876       0.15522162      -0.32451078
H        4.97320000       4.16397700      28.95460900      -0.05662289       0.05933695       0.24835316
H        4.13880200       5.27660400      29.67332800       0.01839419      -0.07486796       0.15333083
O        8.01348800       0.28212100      18.14791600      -0.07946972       0.14902629       0.24647265
H        8.91959800       9.52832400      18.02619200      -0.14372519      -0.00472826      -0.12233773
H        7.63341300       0.22935700      17.24349500       0.03432989      -0.04312203      -0.19803409
O        9.07017300       3.01595300      18.45784700       0.00760738      -0.06152290       0.33686545
H        8.65272800       3.91103800      18.41096900       0.02332351      -0.03092883      -0.08797647
H        8.34541800       2.35835700      18.43302900       0.11706285      -0.02420591      -0.11070657
O        3.46946400       6.79622000      28.98528600       0.03210537      -0.04650869      -0.27129254
H        3.65369000       6.64205400      28.02264700      -0.02463271       0.06940334       0.24509197
H        4.21751300       7.37397500      29.29940100       0.06164117      -0.00544508       0.09289962
O        5.23828300       3.72011000      27.32622200       0.14847608      -0.18394445      -0.28517547
H        4.89880800       4.55218500      26.87581900       0.08988526      -0.11629049       0.12580306
H        6.19644300       3.71288200      27.15106200      -0.04823647       0.05565050       0.07983584
O       10.50333400       0.62700900      19.59975200       0.09507529       0.14647113       0.11265546
H       10.40226900       1.55116700      19.29590200      -0.09048073      -0.04962744      -0.09403656
H        9.69498000       0.47421400      20.14783600       0.07681583      -0.00129995      -0.15698797
O       10.56262600       8.02885300      21.96455900       0.12565496       0.22433082       0.12652297
H        9.78362000       8.35351500      22.45489100       0.00734461      -0.02203796      -0.02356056
H       11.04916900       8.83076600      21.68960900      -0.16097112      -0.11734464      -0.00626269
O        9.48185200      -0.32186000      28.58122400       0.00127527       0.02334819       0.01675794
H       10.19942700      -0.38427300      27.92792400      -0.10830721       0.00886876       0.05625471
H        9.00471700       0.52132100      28.36793300       0.06187309      -0.03395708       0.04521799
O        7.91151100       9.39533100      15.36310500       0.32350085       0.05837690       0.40368431
H        8.12481200       0.18922800      14.42982400       0.00580812       0.00327764      -0.10923024
H        8.72431000       8.89772100      15.67718100      -0.23984486       0.02803120      -0.14352619
O       10.19437100       6.53326000      19.70878700       0.11724694       0.12023868       0.38356234
H       10.20422700       7.07681100      20.54894200      -0.09434972      -0.08183411      -0.22765835
H        9.35038400       6.67869600      19.21929500      -0.05089808       0.00331827      -0.08164590
O       11.47853500       6.31860100      15.44756400      -0.05849774       0.03768569       0.45338991
H        1.32304700       6.52353300      15.30155200      -0.16043685       0.13323715      -0.02360839
H       11.44537400       5.70676200      16.25014200       0.07066832       0.22520397      -0.34758026
O        4.32058700       7.60661600      22.35891700      -0.06931129       0.20271607       0.07142731
H        4.10287200       7.64945500      21.40012600       0.04424046      -0.02136793       0.02030709
H        5.31195100       7.64241100      22.39020900       0.01300618      -0.01486869      -0.00610586
80
Lattice="11.099 0.0 0.0 0.0 9.612 0.0 0.0 0.0 33.0" Properties=species:S:1:pos:R:3:REF_forces:R:3 system_type=Dry1.0PtO2 REF_energy=-216267.0148468018 al_round=1 source=cp2k_sp stress_missing=T _cp2k_dir=cp2k_sp_round1 orig_idx=493 dE_per_atom_meV=-44.21622226109321 F_rmse_meV_A=192.25544637537007 pbc="T T T"
Pt      11.06747900       9.25827800       0.00240000       0.25830538       0.07030631      -0.01382225
Pt       2.79683700       9.26279600       0.00191000      -0.19901523       0.12600926       0.06616375
Pt       5.51664700       9.26068100       0.00303700       0.30104843       0.03976880       0.03365626
Pt       8.34711400       9.26097000       0.00240000      -0.18596688       0.01472522       0.00406131
Pt       1.35818500       2.05168100       0.00127300       0.23333689       0.04378383       0.02630650
Pt       4.19653200       2.05120100       0.00240000      -0.30683702       0.09543473       0.01783420
Pt       6.90923800       2.05293100       0.00000000       0.27066622       0.01287506       0.10657995
Pt       9.74403400       2.04850900       0.00127300      -0.18662714       0.05977815       0.01606425
Pt      11.06747900       4.45227800       0.00240000       0.25529359       0.11234488      -0.04475314
Pt       2.79683700       4.45689200       0.00191000      -0.18304713       0.13686909      -0.00217155
Pt       5.51664700       4.45468100       0.00303700       0.32399142       0.00004474       0.03247355
Pt       8.34711400       4.45497000       0.00240000      -0.14402190       0.07634377      -0.00507793
Pt       1.35818500       6.85768100       0.00127300       0.27248913       0.01664429       0.11055796
Pt       4.19653200       6.85720100       0.00240000      -0.22693998       0.05992573      -0.07826079
Pt       6.90923800       6.85883500       0.00000000       0.26213581       0.09850257       0.08465409
Pt       9.74403400       6.85450900       0.00127300      -0.23841430       0.02096632      -0.05198051
Pt       1.38193600       0.68821900       2.37237900      -0.00662676      -0.28324097       0.28517547
Pt       4.16712000       0.69168000       2.37972600      -0.18366523      -0.38450131       0.51573865
Pt       6.93188000       0.68687400       2.37174300      -0.11007562      -0.06512142       0.15567002
Pt       9.71717500       0.69196800       2.37972600      -0.17034691      -0.42224716       0.18393365
Pt      11.09367200       3.09573700       2.37972600       0.06443442      -0.52299173      -0.80431878
Pt       2.77919000       3.09045000       2.37110600       0.10328379      -0.39309136       0.13379251
Pt       5.54550400       3.09429500       2.37972600      -0.22359035      -0.19770088       0.19753787
Pt       8.32902300       3.08910500       2.37046900      -0.41550727      -0.27180419      -0.28428690
Pt       1.38193600       5.49421900       2.37237900       0.19641121       0.13522564      -0.04658017
Pt       4.16712000       5.49768000       2.37972600      -0.29616077      -0.07132549       0.40763198
Pt       6.93188000       5.49287400       2.37174300      -0.55915430      -0.23341093      -0.82168709
Pt       9.71717500       5.49806400       2.37972600       0.04469812      -0.21424593      -0.31365198
Pt      11.09367200       7.90173700       2.37972600      -0.16261509      -0.24051695       0.32155350
Pt       2.77919000       7.89645000       2.37110600      -0.10737082      -0.21941282       0.27875028
Pt       5.54550400       7.90029500       2.37972600      -0.28126174      -0.19736355       0.24135616
Pt       8.32902300       7.89510500       2.37046900      -0.09657578       0.34630911      -0.35669277
Pt      11.06637000       1.44897400       4.72059400      -0.14933483      -0.47940845       0.19502333
Pt       2.60610400       1.37403200       4.79987100       0.49721282       0.79967999      -0.09706686
Pt       5.36376100       1.55744100       4.75451900       0.42105777      -0.27761334      -0.35693239
Pt       8.25757100       1.49873700       4.70598300      -0.42435598       0.15617242       0.44537732
Pt       1.34654700       3.78346000       4.60136600       0.40512516       0.11718318       0.63233819
Pt       4.01221000       3.93513500       4.77413700       0.20380571      -0.35272915       0.23220817
Pt       6.82501900       3.94528400       4.65952200       0.43138898      -0.50390952       0.44972763
Pt       9.68676200       3.82216900       4.59105000      -0.33722334       0.07515284       0.52956553
Pt      -0.07035800       6.14312300       4.73450200      -0.03175570       0.86736532      -0.22355435
Pt       2.60250800       6.21090600       4.83787400       0.32420688       0.14107490      -0.37747088
Pt       5.37804400       6.27907600       4.74958400      -0.01875774       0.25400136      -0.02357188
Pt       8.15209900       6.36457500       4.50948800      -0.99865305       1.00974119      -2.92576341
Pt       1.17750700       8.61362400       4.72258300       0.09862238      -0.12323967      -0.20881164
Pt       3.96975400       8.62883800       4.81690300       0.49537243       0.71789782      -1.36192116
Pt       6.76854900       8.77607600       4.68327400       0.14502360       0.25575948       0.42268014
Pt       9.54097400       8.68092200       4.82445000       0.22262515       0.10950998      -0.29507216
Pt      10.94664100      -0.07372500       7.09822500      -0.81915919      -0.14014673       0.34739514
Pt       2.46340600      -0.21391800       7.03070600       0.14892705       0.73400013      -0.06860629
Pt       5.53392600      -0.06633000       7.05978800       0.42962469      -0.22612237      -0.83341235
Pt       8.22327700       0.27734200       7.27084000       0.55466773      -0.59977311      -0.57760557
Pt       1.31142200       2.07835400       8.12623800      -0.77741732       0.89539497      -0.70460933
Pt       3.90829600       2.47651000       7.01746400      -0.70896632       0.51435283      -0.41169227
Pt       6.88701800       2.35408200       7.08834600      -1.59142916      -1.05995947      -0.44311938
Pt       9.85880000       2.38696100       6.92142500       0.15945160       0.30691826      -0.03984079
Pt       0.45366000       4.42990900       6.94473100       0.64999293      -0.65723727       0.15758858
Pt       8.31840700       1.06871700      16.19083300      -0.74499879      -0.52708853      -0.76615846
Pt       5.61435400       4.55294400       7.07966800      -0.94221579       0.32561738      -0.96158854
Pt       8.17481800       4.42309500       7.25749000       1.21137123       0.53431641       0.82186450
Pt       1.06154700       6.99295900       7.04461800      -0.49442009      -0.34982432       0.32849445
Pt       3.85835800       7.22734000       7.03751500       0.30013621      -0.87483283       0.16627634
Pt       6.69888900       7.16195400       6.94884500      -0.67438087       0.75894857       0.14172179
Pt       9.37302100       7.29900600       7.42062400       0.39031663       0.58522529      -0.25599859
O        6.19093800       2.79485400       9.78107400      -0.06650210      -0.90748276      -0.74104804
O        3.84701600       7.54126400      10.19324200       0.06361630       0.03072828       0.37941669
O        4.83193200       5.91569800       8.12928500      -1.15046334       0.74700374       1.12872054
O        7.89491400       8.41075300       8.46522200       0.39843463      -0.98988250       0.14553628
O        9.50722400       5.33538100      10.36345900       0.15084561       0.08384831       0.00953211
O        0.18807600       1.11401600       9.26010900       1.00287686       1.65192105      -0.42197925
O        8.36103700       5.15364300       9.93229900      -0.09223216      -0.34042283      -0.69240945
O       11.21040500       8.62603500       9.18429000      -0.39957054      -0.66991383      -0.13234806
O        7.23395000       0.73328600      10.19149100       0.64069993      -0.28970164       0.40353056
O        2.76602300       7.89779300       9.71513700       0.02118024       0.19881879      -0.22416679
O       11.56720600       7.36946100       9.07133500       0.55815826      -0.68358953      -0.00484242
O        5.55756900       3.84547100       9.85510100      -0.15810949       0.72228412       0.03450524
O        6.23088500       0.06339800       9.96933600      -0.42495453       0.26724562      -0.15811669
O        4.01623500       0.74746100       7.97557700      -0.45354263       0.37722560       1.66557258
O        7.18873200       0.26232900      15.06838600       0.65968496       0.60587433       0.73381038
O       -2.24450700       5.93294300       6.13206300       2.37779958      -1.60157010       3.43803158
80
Lattice="11.099 0.0 0.0 0.0 9.612 0.0 0.0 0.0 33.0" Properties=species:S:1:pos:R:3:REF_forces:R:3 system_type=Dry1.0PtO2 REF_energy=-216277.02547679955 al_round=1 source=cp2k_sp stress_missing=T _cp2k_dir=cp2k_sp_round1 orig_idx=494 dE_per_atom_meV=-35.50985746223887 F_rmse_meV_A=46.46218640539988 pbc="T T T"
Pt      11.06747900       9.25827800       0.00243600       0.20393735       0.13324949      -0.03461734
Pt       2.79683700       9.26279600       0.00188200      -0.21172316       0.03218816       0.13889255
Pt       5.51664700       9.26068100       0.00306300       0.23812325       0.02769335      -0.04384040
Pt       8.34711400       9.26097000       0.00243600      -0.19226762       0.08859251       0.00693221
Pt       1.35818500       2.05168100       0.00125500       0.21173139       0.01075338       0.02439309
Pt       4.19653200       2.05120100       0.00243600      -0.29055988      -0.00246312       0.03802405
Pt       6.90923800       2.05293100       0.00000000       0.24952918       0.01691735       0.10441919
Pt       9.74403400       2.04850900       0.00125500      -0.27017617       0.00252637       0.10930326
Pt      11.06747900       4.45227800       0.00243600       0.19616439       0.07591954       0.04431399
Pt       2.79683700       4.45689200       0.00188200      -0.18208708       0.10489022      -0.02883184
Pt       5.51664700       4.45468100       0.00306300       0.24238048       0.08249539       0.08348115
Pt       8.34711400       4.45497000       0.00243600      -0.19715478       0.06920022      -0.04662799
Pt       1.35818500       6.85768100       0.00125500       0.28219093       0.02004278       0.08010684
Pt       4.19653200       6.85720100       0.00243600      -0.35582631       0.04354883      -0.14804156
Pt       6.90923800       6.85883500       0.00000000       0.22238141      -0.00694712       0.16921460
Pt       9.74403400       6.85450900       0.00125500      -0.24318575       0.04210439      -0.01209241
Pt       1.38193600       0.68821900       2.37238300       0.08608363      -0.05357100       0.28212769
Pt       4.16712000       0.69168000       2.37976400      -0.02888120      -0.07777176       0.47036125
Pt       6.93188000       0.68687400       2.37175600       0.00052810      -0.18361123       0.26287115
Pt       9.71717500       0.69196800       2.37976400      -0.02230226      -0.26323933       0.44115763
Pt      11.09367200       3.09573700       2.37976400       0.09045604      -0.16917243       0.38862279
Pt       2.77919000       3.09045000       2.37112900      -0.00192678      -0.21906161       0.27961520
Pt       5.54550400       3.09429500       2.37976400       0.06080094      -0.23753190       0.33377035
Pt       8.32902300       3.08910500       2.37050100      -0.11140951      -0.08882391       0.23594296
Pt       1.38193600       5.49421900       2.37238300       0.09685295      -0.31066385       0.09485829
Pt       4.16712000       5.49768000       2.37976400      -0.00780741      -0.17126325       0.26471874
Pt       6.93188000       5.49287400       2.37175600       0.04622484      -0.18836829       0.20563633
Pt       9.71717500       5.49806400       2.37976400      -0.08870821      -0.20419857       0.10105413
Pt      11.09367200       7.90173700       2.37976400      -0.06667797      -0.12833097       0.09077692
Pt       2.77919000       7.89645000       2.37112900       0.02059917      -0.11637894      -0.15915078
Pt       5.54550400       7.90029500       2.37976400       0.04076124      -0.07163660       0.28030940
Pt       8.32902300       7.89510500       2.37050100      -0.01087988      -0.07747866       0.35080494
Pt      11.11111400       1.50731200       4.75148100       0.13242005       0.03184414       0.08361845
Pt       2.78503400       1.51939000       4.77307800       0.08392596       0.22263235      -0.31697282
Pt       5.53520100       1.51228800       4.77062700       0.12658210      -0.00782027      -0.31217463
Pt       8.31676400       1.52596500       4.74681300      -0.05490797       0.09280398       0.10502700
Pt       1.40473000       3.89366300       4.76378100      -0.04721163       0.31844915       0.11177255
Pt       4.14500200       3.93590500       4.74818900      -0.15785186       0.13254449       0.14226429
Pt       6.94574900       3.90977700       4.72578400       0.09927647      -0.01064025      -0.18356855
Pt       9.74858300       3.91652500       4.74611600       0.02654459       0.02192174       0.11932079
Pt       0.02241200       6.27012400       4.68783200      -0.13850997      -0.00293363       0.13340118
Pt       2.78907200       6.30270300       4.67295200       0.25138346      -0.00974037      -0.08698917
Pt       5.53897000       6.30341000       4.73809300       0.20545944      -0.12259175       0.09914637
Pt       8.33746600       6.30377500       4.71548900      -0.01861530      -0.03309627      -0.19014595
Pt       1.38482700       8.71205300       4.67472000      -0.14727743       0.27267991       0.18331864
Pt       4.16579100       8.72312900       4.73819900       0.18595556       0.16307583      -0.30240289
Pt       6.94480000       8.71774200       4.73171300      -0.12269768       0.03612709      -0.04060595
Pt       9.69763600       8.70635900       4.76039400       0.12107788       0.19070902      -0.29797905
Pt      11.06658300      -0.14445800       7.08181700       0.07903520      -0.35894248       0.40923069
Pt       2.66158900      -0.16875000       7.05029300      -0.04985318      -0.50790656      -0.23515466
Pt       5.72137200      -0.19472600       7.12735200       0.35765385       0.16530292      -0.21011159
Pt       8.39147600       0.05178300       7.11911100       0.55791400       0.10701138      -0.18716964
Pt       1.40510100       2.25363500       7.13332700      -0.00285701       0.67955187       0.65863492
Pt       4.11336600       2.50255500       7.01392500       0.62640357       0.33659548      -0.60145667
Pt       7.01871500       2.28615100       7.14075700       0.02726861       0.14468627      -0.46571783
Pt       9.78372600       2.36755300       7.09065300       0.08590313      -0.11692350      -0.00619327
Pt       0.17455900       4.59523700       7.71464700       0.12187904      -0.88576362       1.59655594
Pt       3.18226300       3.75482000      10.21125600      -2.05633607      -0.48765397      -1.52311906
Pt       5.56561300       4.75308100       7.08989700      -0.07959108       0.26258987      -0.21543584
Pt       8.39245300       4.66977400       7.08853500      -0.03848016       0.37431202       0.30716509
Pt       1.44676400       7.14190000       6.97388500       0.55122296      -0.08920649      -0.40648424
Pt       4.21167400       7.11898000       7.03497700      -0.48778561      -0.29680611       0.71607285
Pt       6.90148200       7.00994700       7.04143600       0.28866806      -0.52014244      -0.63843530
Pt       9.91203900       6.88837400       7.01998800       0.36590606       0.07834049      -0.82076612
O        5.74095200       3.15422500       8.43086900      -0.28965330       0.44810732      -1.12461860
O        3.88645600       7.12186900       9.23614200       0.24850691      -0.02714828      -0.98599140
O        1.92730700       5.22988800       7.07726200       0.14923250       0.52754824      -0.17771209
O        8.45259600       7.85599500       7.97931400      -0.31687872       0.39706835       1.43887994
O        9.80711400       4.73118400       9.74038200       0.48397987      -0.08250774      -0.15680079
O        2.08096000       2.56582000       9.04397100       0.08716657      -2.14444881      -1.04161156
O        8.57649900       4.88587800       9.49549600      -0.38716394      -0.07418610      -1.00876366
O       11.08696200       8.71918800       9.41919000      -0.13428667       0.64055543      -0.58943984
O        7.47236700       0.50371200       9.75647100       0.47917036       0.09965031      -0.24364290
O        2.81807800       7.77037600       9.47299200      -0.38787357      -0.07387243       0.06648565
O       11.10670600       7.46451200       9.45311000       0.23806103      -0.16758555      -0.02747018
O        4.98598400       3.39402500      10.65287900       0.42295113      -0.15503702       1.32718298
O        6.43864900      -0.17396100       9.66108500      -0.62629404      -0.19285795      -0.24202516
O        4.18460800       0.75075900       7.96579400      -0.50485363      -0.03569051       1.38549715
O        4.76146000       2.57446200      11.71413400      -0.36268344       0.84616040      -1.05496536
O        1.46120600       4.49973700       9.44554400      -0.13383827       1.38875422       0.73685045
80
Lattice="11.099 0.0 0.0 0.0 9.612 0.0 0.0 0.0 33.0" Properties=species:S:1:pos:R:3:REF_forces:R:3 system_type=Dry1.0PtO2 REF_energy=-216275.09326177122 al_round=1 source=cp2k_sp stress_missing=T _cp2k_dir=cp2k_sp_round1 orig_idx=496 dE_per_atom_meV=-33.89859283233818 F_rmse_meV_A=104.0332405100364 pbc="T T T"
Pt      11.06747900       9.25827800       0.00241800       0.23366342       0.08423140       0.01418169
Pt       2.79683700       9.26279600       0.00189600      -0.21517204       0.05269682       0.14720132
Pt       5.51664700       9.26068100       0.00305000       0.26579758       0.00249551       0.05810694
Pt       8.34711400       9.26097000       0.00241800      -0.19679122       0.10621794       0.04368922
Pt       1.35818500       2.05168100       0.00126400       0.22728554       0.02217834       0.02123371
Pt       4.19653200       2.05120100       0.00241800      -0.27821241       0.04120039       0.00865228
Pt       6.90923800       2.05293100       0.00000000       0.25474081       0.08918952       0.05608811
Pt       9.74403400       2.04850900       0.00126400      -0.29612734      -0.00015375       0.06423850
Pt      11.06747900       4.45227800       0.00241800       0.20615621       0.07306716       0.06607787
Pt       2.79683700       4.45689200       0.00189600      -0.17909226       0.12346130       0.01196797
Pt       5.51664700       4.45468100       0.00305000       0.25552654       0.04744766       0.10435749
Pt       8.34711400       4.45497000       0.00241800      -0.17513688       0.06663117      -0.02341092
Pt       1.35818500       6.85768100       0.00126400       0.27396855       0.00546514       0.07761030
Pt       4.19653200       6.85720100       0.00241800      -0.29443864       0.04791354      -0.14951737
Pt       6.90923800       6.85883500       0.00000000       0.20822749      -0.00156117       0.10633055
Pt       9.74403400       6.85450900       0.00126400      -0.23356571       0.05859699       0.00425466
Pt       1.38193600       0.68821900       2.37238100       0.03798805      -0.07298077       0.17030629
Pt       4.16712000       0.69168000       2.37974500      -0.02228375      -0.19118930       0.31799098
Pt       6.93188000       0.68687400       2.37174900      -0.01716314      -0.20070290       0.22206774
Pt       9.71717500       0.69196800       2.37974500      -0.05577340      -0.26746520       0.35028352
Pt      11.09367200       3.09573700       2.37974500      -0.03192950      -0.22621184       0.04944952
Pt       2.77919000       3.09045000       2.37111700      -0.02203744      -0.25014727       0.07416656
Pt       5.54550400       3.09429500       2.37974500       0.00930174      -0.24508169       0.15509872
Pt       8.32902300       3.08910500       2.37048500      -0.10079548      -0.10259937       0.24437720
Pt       1.38193600       5.49421900       2.37238100       0.05551064      -0.19535963       0.08382311
Pt       4.16712000       5.49768000       2.37974500      -0.09210978      -0.02784299       0.14860823
Pt       6.93188000       5.49287400       2.37174900       0.04828995      -0.14279959       0.14338632
Pt       9.71717500       5.49806400       2.37974500      -0.13756740      -0.16899348       0.10390806
Pt      11.09367200       7.90173700       2.37974500      -0.13580054      -0.22343402       0.20761762
Pt       2.77919000       7.89645000       2.37111700       0.01725879      -0.24226119      -0.13648908
Pt       5.54550400       7.90029500       2.37974500       0.01040268      -0.18701280       0.27223614
Pt       8.32902300       7.89510500       2.37048500      -0.07680297      -0.11453803       0.34608748
Pt      11.08362100       1.48898900       4.73016500       0.06012628       0.00512678       0.04151663
Pt       2.75114200       1.48175600       4.71376300      -0.00299019       0.14617545      -0.35654673
Pt       5.52634600       1.48816100       4.73258200       0.14512130       0.04349124      -0.37723228
Pt       8.30092500       1.51432000       4.72323500      -0.03686962       0.02549249      -0.03831612
Pt       1.39422900       3.86890200       4.68487500       0.10271712       0.26094745       0.02370506
Pt       4.12215400       3.93717900       4.71668700      -0.07048423       0.07357932       0.13710100
Pt       6.91039700       3.90551600       4.70898600       0.11954242       0.09288008      -0.13486980
Pt       9.70473300       3.91121200       4.72471700      -0.02306794      -0.01710966      -0.11740326
Pt      -0.01637600       6.27516100       4.70870100      -0.06535590       0.15190130      -0.02327157
Pt       2.75022500       6.29498000       4.69304100       0.21589503      -0.08384419      -0.13255478
Pt       5.50724700       6.30075300       4.72494100       0.33653789       0.18437639      -0.13396991
Pt       8.29230100       6.30832000       4.71821000       0.07152347      -0.02180141      -0.24703572
Pt       1.35618000       8.70229000       4.67940400      -0.06980494       0.24323203      -0.03196036
Pt       4.13859000       8.70271500       4.73589000       0.15411913       0.22005148      -0.22920615
Pt       6.91070300       8.71546300       4.75277700      -0.03005568       0.05423228      -0.07779747
Pt       9.65807200       8.70450400       4.76163200       0.15748522       0.18395370      -0.28610158
Pt      11.03473900      -0.11695400       7.07849300      -0.01037543      -0.48192298       0.40694807
Pt       2.66165100      -0.15027800       7.07036400      -0.14046400      -0.39191380      -0.16710063
Pt       5.68164700      -0.16817300       7.15143700       0.17968824       0.01880196      -0.21805836
Pt       8.34641600       0.09650300       7.14758400       0.48035204       0.32512528       0.05877131
Pt       1.38445900       2.21608000       7.07262000      -0.18692333       0.94752255       0.08692952
Pt       4.11592600       2.47644500       6.88798700       0.05009949       0.41471537      -0.18474560
Pt       6.90830800       2.33831000       7.07386800      -0.28259923       0.57793775       0.08960552
Pt       9.73285100       2.35497300       7.04671100      -0.38430333       0.08922140      -0.08736249
Pt       0.14110200       4.63000500       7.03523700       0.55988809      -0.96627823       0.29407406
Pt       5.09132200       3.45928900      12.21322900       0.11492883       0.41365556      -0.38574418
Pt       5.55566900       4.71453800       7.04625900      -0.71956750      -0.06160055       0.14961456
Pt       8.35583300       4.67017600       7.07410600      -0.04487398       0.28497133       0.51158220
Pt       1.38789800       7.22303800       6.98476600       0.48924703      -0.11505019       0.01897371
Pt       4.17216700       7.12119500       7.02639200      -0.19594533      -0.52866204       0.85348701
Pt       6.85559200       7.02026800       7.03855200      -0.10804753      -0.52891864      -0.49435324
Pt       9.81923700       6.95671800       7.03586800       0.34426508      -0.12907299      -0.65115969
O        5.94483000       3.00630700       9.40348500       0.77391291      -1.29573119      -0.03480297
O        3.87893400       7.12554700       9.30053900       0.40135849      -0.08741340      -1.09508845
O        2.06875500       5.39606500       7.21368200      -0.43184355       0.42437398       0.06289896
O        8.36852400       7.90407200       8.01569600      -0.07642348       0.39338653       1.00928354
O        9.78934500       4.90716900       9.78114200       0.25515733       0.43784399       0.47557699
O        1.59316800       3.00161200       9.06140400      -0.27517851      -0.07758716      -0.80088738
O        8.56398000       4.94153100       9.56975900      -0.32142751      -0.46767599      -1.23577306
O       11.11984200       8.65483300       9.41401800      -0.46496656       0.70182174      -0.35526992
O        7.44836600       0.50350000       9.81908800       0.61123149       0.11276551      -0.12472834
O        2.84759500       7.81033300       9.54167100      -0.49845158       0.12589202       0.18495592
O       11.20112400       7.39832200       9.38281600       0.25460762      -0.11026331      -0.26008716
O        5.31506500       4.10400000       9.28696400      -0.11589711       1.36017538      -0.99188334
O        6.42543000      -0.18573700       9.72163700      -0.58908040      -0.21438374      -0.29997680
O        4.14013300       0.82806900       7.99498200      -0.05359054       0.31543222       1.29755050
O        4.68745900       1.80815900      12.59942700      -0.22049525      -0.54745064       0.34904014
O        1.02234700       4.18553500       9.08290100      -0.10949044      -0.41560806       0.13609673
64
Lattice="9.838 0.0 0.0 0.0 14.0 0.0 0.0 0.0 17.04" Properties=species:S:1:pos:R:3:REF_forces:R:3 system_type=FORCED_Chair4x4 REF_energy=-9921.92882453121 al_round=1 source=cp2k_sp REF_stress="0.003338735911598621 -2.6612395041332256e-05 0.010718556042054975 1.4402942515637762e-13 -4.737630213192836e-14 1.7056298308492245e-14" _cp2k_dir=cp2k_sp_round1 orig_idx=508 dE_per_atom_meV=-0.9511897796983249 F_rmse_meV_A=249.71952668495996 pbc="T T T"
C        7.37853600       7.00000000       0.00000000      -0.00113437       0.00000000       0.43247912
C        8.60829300       7.00000000       0.71000000      -0.00135806       0.00000000      -0.43249867
C        8.60829300       7.00000000       2.13000000      -0.00135600       0.00000000       0.43250021
C        7.37853600       7.00000000       2.84000000      -0.00113437       0.00000000      -0.43247861
C        7.37853600       7.00000000       4.26000000      -0.00113437       0.00000000       0.43247912
C        8.60829300       7.00000000       4.97000000      -0.00135651       0.00000000      -0.43250021
C        8.60829300       7.00000000       6.39000000      -0.00135651       0.00000000       0.43250021
C        7.37853600       7.00000000       7.10000000      -0.00113437       0.00000000      -0.43247912
C        7.37853600       7.00000000       8.52000000      -0.00113437       0.00000000       0.43247912
C        8.60829300       7.00000000       9.23000000      -0.00135651       0.00000000      -0.43250021
C        8.60829300       7.00000000      10.65000000      -0.00135806       0.00000000       0.43249867
C        7.37853600       7.00000000      11.36000000      -0.00113437       0.00000000      -0.43247912
C        7.37853600       7.00000000      12.78000000      -0.00113437       0.00000000       0.43247861
C        8.60829300       7.00000000      13.49000000      -0.00135806       0.00000000      -0.43249867
C        8.60829300       7.00000000      14.91000000      -0.00135806       0.00000000       0.43249867
C        7.37853600       7.00000000      15.62000000      -0.00113437       0.00000000      -0.43247861
C        4.91902400       7.00000000       0.00000000      -0.00000000       0.00000000       0.43244776
C        6.14878000       7.00000000       0.71000000      -0.00055227       0.00000000      -0.43246421
C        6.14878000       7.00000000       2.13000000      -0.00055227       0.00000000       0.43246524
C        4.91902400       7.00000000       2.84000000      -0.00000000       0.00000000      -0.43244776
C        4.91902400       7.00000000       4.26000000      -0.00000000       0.00000000       0.43244827
C        6.14878000       7.00000000       4.97000000      -0.00055227       0.00000000      -0.43246473
C        6.14878000       7.00000000       6.39000000      -0.00055227       0.00000000       0.43246473
C        4.91902400       7.00000000       7.10000000      -0.00000000       0.00000000      -0.43244827
C        4.91902400       7.00000000       8.52000000      -0.00000000       0.00000000       0.43244776
C        6.14878000       7.00000000       9.23000000      -0.00055227       0.00000000      -0.43246473
C        6.14878000       7.00000000      10.65000000      -0.00055227       0.00000000       0.43246473
C        4.91902400       7.00000000      11.36000000      -0.00000000       0.00000000      -0.43244776
C        4.91902400       7.00000000      12.78000000      -0.00000000       0.00000000       0.43244776
C        6.14878000       7.00000000      13.49000000      -0.00055227       0.00000000      -0.43246473
C        6.14878000       7.00000000      14.91000000      -0.00055227       0.00000000       0.43246473
C        4.91902400       7.00000000      15.62000000      -0.00000000       0.00000000      -0.43244724
C        2.45951200       7.00000000       0.00000000       0.00113591       0.00000000       0.43247861
C        3.68926800       7.00000000       0.71000000       0.00055227       0.00000000      -0.43246473
C        3.68926800       7.00000000       2.13000000       0.00055227       0.00000000       0.43246524
C        2.45951200       7.00000000       2.84000000       0.00113591       0.00000000      -0.43247810
C        2.45951200       7.00000000       4.26000000       0.00113591       0.00000000       0.43247861
C        3.68926800       7.00000000       4.97000000       0.00055227       0.00000000      -0.43246524
C        3.68926800       7.00000000       6.39000000       0.00055227       0.00000000       0.43246524
C        2.45951200       7.00000000       7.10000000       0.00113591       0.00000000      -0.43247861
C        2.45951200       7.00000000       8.52000000       0.00113591       0.00000000       0.43247861
C        3.68926800       7.00000000       9.23000000       0.00055227       0.00000000      -0.43246524
C        3.68926800       7.00000000      10.65000000       0.00055227       0.00000000       0.43246473
C        2.45951200       7.00000000      11.36000000       0.00113591       0.00000000      -0.43247861
C        2.45951200       7.00000000      12.78000000       0.00113540       0.00000000       0.43247810
C        3.68926800       7.00000000      13.49000000       0.00055227       0.00000000      -0.43246473
C        3.68926800       7.00000000      14.91000000       0.00055227       0.00000000       0.43246524
C        2.45951200       7.00000000      15.62000000       0.00113540       0.00000000      -0.43247810
C        0.00000000       7.00000000       0.00000000      -0.00001080       0.00000000       0.43236445
C        1.22975600       7.00000000       0.71000000       0.00136731       0.00000000      -0.43249609
C        1.22975600       7.00000000       2.13000000       0.00136577       0.00000000       0.43249764
C        0.00000000       7.00000000       2.84000000      -0.00001080       0.00000000      -0.43233206
C        0.00000000       7.00000000       4.26000000      -0.00001080       0.00000000       0.43233669
C        1.22975600       7.00000000       4.97000000       0.00136577       0.00000000      -0.43249764
C        1.22975600       7.00000000       6.39000000       0.00136577       0.00000000       0.43249764
C        0.00000000       7.00000000       7.10000000      -0.00001080       0.00000000      -0.43233669
C        0.00000000       7.00000000       8.52000000      -0.00001080       0.00000000       0.43233206
C        1.22975600       7.00000000       9.23000000       0.00136577       0.00000000      -0.43249712
C        1.22975600       7.00000000      10.65000000       0.00136731       0.00000000       0.43249609
C        0.00000000       7.00000000      11.36000000      -0.00001080       0.00000000      -0.43236445
C        0.00000000       7.00000000      12.78000000      -0.00001080       0.00000000       0.43236034
C        1.22975600       7.00000000      13.49000000       0.00136731       0.00000000      -0.43249609
C        1.22975600       7.00000000      14.91000000       0.00136731       0.00000000       0.43249609
C        0.00000000       7.00000000      15.62000000      -0.00001080       0.00000000      -0.43236085
76
Lattice="9.838 0.0 0.0 0.0 14.0 0.0 0.0 0.0 17.04" Properties=species:S:1:pos:R:3:REF_forces:R:3 system_type=FORCED_Chair4x4_sol REF_energy=-11796.447666266286 al_round=1 source=cp2k_sp REF_stress="0.0030245044726260814 -0.0006405068902346756 0.00994701989156584 -0.0001425376102901024 2.794016217115797e-05 -8.015230273855062e-05" _cp2k_dir=cp2k_sp_round1 orig_idx=509 dE_per_atom_meV=-2.239194816004448 F_rmse_meV_A=228.4970842622785 pbc="T T T"
C        7.37900000       7.00000000       0.00000000      -0.02999552       0.05670877       0.40153230
C        8.60800000       7.00000000       0.71000000       0.02140495      -0.07695775      -0.43423622
C        8.60800000       7.00000000       2.13000000       0.00726799      -0.00205894       0.45323153
C        7.37813000       7.00808200       2.84022300       0.01904468      -0.00725154      -0.42304729
C        7.37855200       7.03934300       4.26056900      -0.01338105       0.01638513       0.38916477
C        8.60857000       7.06048800       4.96921300      -0.03039764      -0.01059860      -0.35216711
C        8.60816300       7.10991200       6.38993100       0.02125840       0.01605448       0.37072019
C        7.37874000       7.13453100       7.09910700      -0.01364176      -0.03023720      -0.44090412
C        7.37839300       7.16534800       8.51865600       0.00089269       0.00721709       0.47842371
C        8.60758900       7.16655100       9.23047900       0.04963155       0.02266530      -0.49822635
C        8.60823300       7.16317300      10.65025700       0.00401915       0.00170773       0.46857639
C        7.37830200       7.15488200      11.36094100       0.03100185       0.01936812      -0.42641903
C        7.37822600       7.11833700      12.78088300       0.02237631      -0.02039245       0.41939838
C        8.60839200       7.09340900      13.49027200      -0.00734564       0.02373180      -0.40847325
C        8.60841500       7.04741600      14.91011400      -0.00199929      -0.02259588       0.39552980
C        7.37895000       7.02671900      15.61918200      -0.01778895       0.01764497      -0.37188079
C        4.91900000       7.00000000       0.00000000       0.01247911       0.06479180       0.43740176
C        6.14900000       7.00000000       0.71000000      -0.00281382      -0.07938333      -0.43835461
C        6.14900000       7.00000000       2.13000000      -0.03156492       0.01376569       0.44464970
C        4.91887300       7.00863000       2.84052700       0.01439047       0.00427780      -0.47342086
C        4.91927500       7.04259300       4.25983800      -0.03473098       0.00856332       0.43125528
C        6.14830300       7.06385400       4.96934400       0.03233522      -0.01686644      -0.37578938
C        6.14891800       7.11219600       6.38956900      -0.02178856       0.02479675       0.39614378
C        4.91864600       7.13729500       7.09909000       0.02791241      -0.01544050      -0.43457406
C        4.91865700       7.17282500       8.51820700      -0.00434568      -0.00175349       0.52618196
C        6.14923300       7.17910800       9.23005400      -0.05193680      -0.02848525      -0.48135323
C        6.14981400       7.17328100      10.65051600      -0.07612420      -0.02257429       0.44436945
C        4.91903700       7.16448300      11.36180400      -0.01927145      -0.00565848      -0.49985746
C        4.91883400       7.12306200      12.78135000       0.01087217      -0.01597529       0.40697635
C        6.14894200       7.09635200      13.49032400      -0.01556649       0.01837619      -0.38054387
C        6.14872700       7.04891800      14.91064600       0.02349783      -0.01883179       0.38105140
C        4.91946100       7.02865800      15.62001300      -0.02393286       0.00706745      -0.41141973
C        2.46000000       7.00000000       0.00000000      -0.02894034       0.06424570       0.42331057
C        3.68900000       7.00000000       0.71000000       0.02907095      -0.07957359      -0.43092669
C        3.68900000       7.00000000       2.13000000       0.01760743       0.02603756       0.45934973
C        2.45966900       7.00954500       2.84072900      -0.00744592      -0.00815040      -0.47041575
C        2.45943400       7.04253400       4.26007000       0.00861268       0.00942824       0.43191811
C        3.68908800       7.06577000       4.96922900       0.01890275      -0.00692707      -0.37725028
C        3.68929700       7.11476600       6.38959100      -0.01891047       0.00665710       0.38061277
C        2.45959200       7.13660500       7.09939300      -0.00266726      -0.02791395      -0.43252952
C        2.45989500       7.16695700       8.51918800      -0.01756166       0.01622932       0.45484618
C        3.68844000       7.18047400       9.22990900       0.05719985      -0.01531658      -0.45992514
C        3.68811900       7.17790100      10.65011100       0.07321577      -0.03190534       0.44919541
C        2.45949900       7.16180400      11.36080100      -0.00824861      -0.00102433      -0.40400467
C        2.45976600       7.12163600      12.78120800      -0.02070767      -0.00843630       0.39359993
C        3.68906600       7.09831900      13.49056100       0.00549599       0.01388139      -0.38325072
C        3.68944600       7.04975100      14.91070800      -0.00262047      -0.01576601       0.39532257
C        2.45952200       7.02798200      15.61997500       0.01560968       0.01034561      -0.41772922
C        0.00000000       7.00000000       0.00000000      -0.00154369       0.05522113       0.42351832
C        1.23000000       7.00000000       0.71000000      -0.00290226      -0.07527882      -0.44149084
C        1.23000000       7.00000000       2.13000000       0.00137400       0.01066031       0.45478910
C        0.00020600       7.00597600       2.84034300      -0.01968745       0.00820799      -0.44844465
C        9.83772700       7.03670400       4.26041600       0.04065789       0.03474126       0.40757902
C        1.23007000       7.06293400       4.96954100      -0.02300366      -0.01197157      -0.38794607
C        1.22967400       7.11211100       6.38970300       0.03110469       0.01278867       0.38929847
C        0.00033500       7.13318100       7.09889300      -0.02778797      -0.03878921      -0.41805266
C        9.83786900       7.15909400       8.51848000       0.02907249       0.03474178       0.52199826
C        1.23059500       7.16931300       9.23085600      -0.05597960       0.01774061      -0.50455229
C        1.22998700       7.16836800      10.65061100      -0.02531508      -0.01635633       0.45039817
C        9.83785300       7.15401100      11.36133200       0.01996719       0.00765006      -0.46354371
C        0.00013300       7.11834100      12.78104700      -0.00791437      -0.02482760       0.41521159
C        1.22973700       7.09502400      13.49054800       0.01478076       0.02418174      -0.40596488
C        1.23002200       7.04816300      14.91042300      -0.01978464      -0.01990754       0.40401238
C        9.83777300       7.02640300      15.61963000       0.02456946       0.01801469      -0.40348428
O        6.61135000      13.64174700       6.81478700      -0.10320203      -0.19112245       0.13096069
H        6.54118700      13.78855700       7.77583500       0.00340003      -0.04669741      -0.20957886
H        5.83349900      13.09445400       6.59735000       0.20305752       0.18166594       0.08638856
O        7.87500000       2.53400000       2.44300000      -0.07588817       0.35952150       0.14866068
H        8.62800000       2.19500000       1.93700000       0.09627856       0.01745985       0.02167749
H        8.26219800       3.16477400       3.07983800      -0.06247061      -0.22829907      -0.21684069
O        9.82118500      11.41413700       9.22561000       0.12921286      -0.20604719       0.05289068
H        9.14480300      10.74383400       9.42772700       0.12383102       0.06496561      -0.05269631
H        0.75346600      10.89362100       8.93303400      -0.18715833       0.08212361       0.05966914
O        4.47811200       3.37841800       9.66635600       0.10661594       0.06311596       0.09825420
H        5.31113600       3.75181700       9.32613100      -0.15731759      -0.03890439       0.07587840
H        4.42009800       3.71681800      10.57919100       0.03501791      -0.05016891      -0.23225548
80
Lattice="24.496 0.0 0.0 0.0 14.0 0.0 0.0 0.0 17.04" Properties=species:S:1:pos:R:3:REF_forces:R:3 system_type=FORCED_Chair4x4sat REF_energy=-10173.320762517687 al_round=1 source=cp2k_sp REF_stress="0.0009432240394725418 -2.015621015685091e-06 0.005334228709623037 8.423946269397411e-15 -4.847104672336646e-05 -3.268386395017168e-15" _cp2k_dir=cp2k_sp_round1 orig_idx=510 dE_per_atom_meV=88.88240179053355 F_rmse_meV_A=16.504832684591268 pbc="T T T"
C       15.32250400       7.00000000       0.00000000       0.58181035       0.00000000       0.04213781
C       16.55226000       7.00000000       0.71000000      -0.14966804       0.00000000       1.85659990
C       16.55226000       7.00000000       2.13000000       0.39558585       0.00000000      -2.28424484
C       15.33972500       7.00000000       2.82830400      -0.53471545       0.00000000       0.52885282
C       15.33926100       7.00000000       4.27024100      -0.43315430       0.00000000      -0.53558603
C       16.53769100       7.00000000       4.99563300       0.52479716       0.00000000       0.49480318
C       16.53899500       7.00000000       6.36907000       0.54762496       0.00000000      -0.49628825
C       15.34071300       7.00000000       7.09221800      -0.43149696       0.00000000       0.52639485
C       15.34149000       7.00000000       8.53016500      -0.41533244       0.00000000      -0.52181057
C       16.54129300       7.00000000       9.25280600       0.53555414       0.00000000       0.47877133
C       16.54126300       7.00000000      10.62625000       0.53555569       0.00000000      -0.48054179
C       15.34120200       7.00000000      11.34852000      -0.41926417       0.00000000       0.51822491
C       15.33955900       7.00000000      12.78576900      -0.43031580       0.00000000      -0.52041960
C       16.53809200       7.00000000      13.50932400       0.54039399       0.00000000       0.49791988
C       16.53482000       7.00000000      14.88214500       0.50858430       0.00000000      -0.47160052
C       15.33276700       7.00000000      15.60329300      -0.41796268       0.00000000       0.51256539
C       12.86299200       7.00000000       0.00000000      -0.03545397       0.00000000      -0.30826141
C       14.09274800       7.00000000       0.71000000       0.21965296       0.00000000      -0.11619845
C       14.09274800       7.00000000       2.13000000       0.45687170       0.00000000       0.19408282
C       12.85956700       7.00000000       2.84363600       0.23799161       0.00000000       0.11934702
C       12.86010100       7.00000000       4.26305000       0.30580086       0.00000000      -0.12664124
C       14.10411100       7.00000000       4.97270000      -0.09255252       0.00000000      -0.27528289
C       14.10470300       7.00000000       6.39073400      -0.10727672       0.00000000       0.28187109
C       12.86127500       7.00000000       7.10221400       0.28518216       0.00000000       0.07831941
C       12.86133100       7.00000000       8.52056800       0.29273966       0.00000000      -0.09809325
C       14.10533100       7.00000000       9.23095700      -0.11071685       0.00000000      -0.27520216
C       14.10496500       7.00000000      10.64810000      -0.11133495       0.00000000       0.27170855
C       12.86056400       7.00000000      11.35846200       0.29546965       0.00000000       0.09181976
C       12.85941300       7.00000000      12.77633400       0.29294946       0.00000000      -0.08369353
C       14.10244100       7.00000000      13.48562700      -0.10954289       0.00000000      -0.27777841
C       14.09950200       7.00000000      14.90244700      -0.08742368       0.00000000       0.29635977
C       12.85948800       7.00000000      15.61883400       0.30146804       0.00000000       0.11562972
C       10.40348000       7.00000000       0.00000000      -0.37249528       0.00000000       0.18098614
C       11.63323600       7.00000000       0.71000000       0.01375026       0.00000000       0.22583235
C       11.63323600       7.00000000       2.13000000      -0.20894740       0.00000000      -0.08732393
C       10.39742800       7.00000000       2.84293300       0.08115379       0.00000000      -0.30560237
C       10.38883300       7.00000000       4.25948900       0.13537013       0.00000000       0.26383737
C       11.63142800       7.00000000       4.97321700      -0.31824140       0.00000000       0.07003171
C       11.63130500       7.00000000       6.39111000      -0.30427928       0.00000000      -0.09341898
C       10.38595900       7.00000000       7.09764600       0.10592483       0.00000000      -0.27405494
C       10.38768400       7.00000000       8.51700400       0.08846292       0.00000000       0.27629128
C       11.63085200       7.00000000       9.23024700      -0.30582092       0.00000000       0.07992480
C       11.63046700       7.00000000      10.64957700      -0.30751270       0.00000000      -0.08381540
C       10.38771800       7.00000000      11.36429200       0.08923991       0.00000000      -0.28211689
C       10.38574600       7.00000000      12.78392800       0.10319843       0.00000000       0.26950048
C       11.63078700       7.00000000      13.49006400      -0.30564351       0.00000000       0.08712492
C       11.63069700       7.00000000      14.90844100      -0.32743978       0.00000000      -0.08418409
C       10.38857500       7.00000000      15.62199900       0.15291226       0.00000000      -0.24157110
C        7.94396800       7.00000000       0.00000000       0.25880366       0.00000000      -0.30674754
C        9.17372400       7.00000000       0.71000000      -0.19243012       0.00000000      -0.26477531
C        9.17372400       7.00000000       2.13000000      -0.00993577       0.00000000       0.01970288
C        7.95574500       7.00000000       2.83496300      -0.44355698       0.00000000       0.50987242
C        7.95104400       7.00000000       4.21104300      -0.57560885       0.00000000      -0.45919906
C        9.14777500       7.00000000       4.94907500       0.39949341       0.00000000       0.54542410
C        9.14960300       7.00000000       6.39143700       0.39347857       0.00000000      -0.54596968
C        7.95391200       7.00000000       7.11986400      -0.56714838       0.00000000       0.49417275
C        7.95553300       7.00000000       8.49507900      -0.56256410       0.00000000      -0.50117592
C        9.15317700       7.00000000       9.22068800       0.39921727       0.00000000       0.53350395
C        9.15323700       7.00000000      10.66126100       0.40092860       0.00000000      -0.53892435
C        7.95574900       7.00000000      11.38714200      -0.56454745       0.00000000       0.49255810
C        7.95364500       7.00000000      12.76216800      -0.56887102       0.00000000      -0.50263117
C        9.14946100       7.00000000      13.49076800       0.39698093       0.00000000       0.53429070
C        9.14717800       7.00000000      14.93274900       0.36402761       0.00000000      -0.53707675
C        7.94537000       7.00000000      15.66606500      -0.54266684       0.00000000       0.43994561
H        7.00000000       7.00000000       0.54500000       0.15656014       0.00000000      -0.28053926
H        7.00000000       7.00000000       2.29500000       0.39191328       0.00000000       0.36920170
H        6.98430400       7.00000000       4.70714400       0.08745659       0.00000000       0.09522133
H        6.98411200       7.00000000       6.62934900       0.11749994       0.00000000      -0.12156845
H        6.98696600       7.00000000       8.98808700       0.12255987       0.00000000       0.10839515
H        6.98755000       7.00000000      10.89351800       0.11936913       0.00000000      -0.10634032
H        6.98312300       7.00000000      13.25136700       0.12368344       0.00000000       0.12239635
H        6.97977000       7.00000000      15.16798300       0.09466803       0.00000000      -0.11329670
H       17.49622800       7.00000000       0.16500000      -0.13787439       0.00000000       0.25692264
H       17.49622800       7.00000000       2.67500000      -0.12201685       0.00000000      -0.26776036
H       17.50895200       7.00000000       4.50896400      -0.12506412       0.00000000      -0.11237419
H       17.50919400       7.00000000       6.85924900      -0.14175161       0.00000000       0.11773288
H       17.51041900       7.00000000       8.76065700      -0.13783942       0.00000000      -0.11669621
H       17.51030300       7.00000000      11.11872500      -0.14057456       0.00000000       0.11456939
H       17.50918600       7.00000000      13.02063600      -0.14932917       0.00000000      -0.12145584
H       17.50445800       7.00000000      15.37202200      -0.13156747       0.00000000       0.10685814
248
Lattice="11.099 0.0 0.0 0.0 9.612 0.0 0.0 0.0 33.0" Properties=species:S:1:pos:R:3:REF_forces:R:3 system_type=FORCED_Close0.375PtOH2_neb_img05 REF_energy=-250417.69489376817 al_round=1 source=cp2k_sp REF_stress="-0.021923667652114818 -0.009105401988467647 -0.0013890253752009219 0.0014139694680006176 0.0008980639607680111 -0.00046542739942367683" _cp2k_dir=cp2k_sp_round1 orig_idx=528 dE_per_atom_meV=-14.571243402315304 F_rmse_meV_A=161.0805279102638 pbc="T T T"
Pt      11.06747900       9.25827800       0.00231000       0.19772093       0.30361542       0.14941556
Pt       2.79683700       9.26279600       0.00198000      -0.29287953       0.06390066       0.17867523
Pt       5.51664700       9.26068100       0.00297000       0.40075017      -0.01970134       0.16491314
Pt       8.34711400       9.26097000       0.00231000      -0.19591653       0.07980139      -0.03265456
Pt       1.35818500       2.05168100       0.00132000       0.03948546      -0.02289105       0.07607792
Pt       4.19653200       2.05120100       0.00231000      -0.33775145      -0.20860596      -0.11168359
Pt       6.90923800       2.05293100       0.00000000       0.53808051       0.06960491       0.10497866
Pt       9.74403400       2.04850900       0.00132000      -0.21257317       0.08793122      -0.01482190
Pt      11.06747900       4.45227800       0.00231000       0.24706144      -0.04192853       0.00199415
Pt       2.79683700       4.45689200       0.00198000      -0.32483268       0.26054430       0.50535962
Pt       5.51664700       4.45468100       0.00297000       0.47098551       0.34176134       0.17815844
Pt       8.34711400       4.45497000       0.00231000      -0.25657915       0.13055240       0.03776437
Pt       1.35818500       6.85768100       0.00132000       0.32960465      -0.12340833      -0.23234084
Pt       4.19653200       6.85720100       0.00231000      -0.11821573       0.13572186      -0.01368495
Pt       6.90923800       6.85883500       0.00000000       0.27739737       0.06276475      -0.04648658
Pt       9.74403400       6.85450900       0.00132000      -0.55347268       0.09447519      -0.01015689
Pt       1.38193600       0.68821900       2.37237000      -0.07138051      -0.12030501       0.11446655
Pt       4.16712000       0.69168000       2.37963000       0.11056156       0.20545224       0.17997466
Pt       6.93188000       0.68687400       2.37171000      -0.02425990       0.08448594       0.31100375
Pt       9.71717500       0.69196800       2.37963000      -0.11314809      -0.15761686       0.31649562
Pt      11.09367200       3.09573700       2.37963000      -0.12228939      -0.38041068       0.20467011
Pt       2.77919000       3.09045000       2.37105000       0.06097577      -0.32605036       0.05756958
Pt       5.54550400       3.09429500       2.37963000       0.14652101      -0.22625710       0.53958512
Pt       8.32902300       3.08910500       2.37039000      -0.05062091      -0.18196316       0.60906405
Pt       1.38193600       5.49421900       2.37237000       0.03432217      -0.12929205      -0.43034408
Pt       4.16712000       5.49768000       2.37963000      -0.01290385      -0.29389408       0.09912169
Pt       6.93188000       5.49287400       2.37171000       0.03024595      -0.38616893      -0.06941465
Pt       9.71717500       5.49806400       2.37963000       0.00230319      -0.44732725      -0.24321506
Pt      11.09367200       7.90173700       2.37963000       0.01835356       0.04164005       0.00643033
Pt       2.77919000       7.89645000       2.37105000       0.00358772      -0.07711202      -0.01135039
Pt       5.54550400       7.90029500       2.37963000      -0.02606739      -0.33627204       0.03543083
Pt       8.32902300       7.89510500       2.37039000      -0.00647198      -0.07911336      -0.26660645
Pt      10.96125100       1.52154600       4.79348500       0.23481270       0.15253893      -0.26643059
Pt       2.69495500       1.54538900       4.71283600       0.07556473       0.14545966      -0.11236647
Pt       5.47295200       1.55344300       4.85725500       0.02500244      -0.00826044      -0.57076746
Pt       8.24987100       1.53051900       4.75576800      -0.28847163      -0.01465683      -0.35615592
Pt       1.31638500       3.89641200       4.66639800       0.05668460       0.45446154       0.29622453
Pt       4.09074200       3.94013300       4.75909200       0.18057065      -0.05882787       0.05841907
Pt       6.88072200       3.90451400       4.78573900      -0.04073759       0.08048942       0.07063078
Pt       9.69106400       3.91537400       4.77313800      -0.36179795       0.03490170      -0.52913667
Pt      11.09122700       6.33413000       4.62920500       0.13667008       0.25533165       0.08159499
Pt       2.71456800       6.33790800       4.66616400      -0.25459940      -0.00543943      -0.05515685
Pt       5.47772200       6.28190900       4.69065200       0.02691020       0.15541754       0.00755082
Pt       8.28411500       6.28941200       4.62593500      -0.07160780      -0.00167533       0.05866692
Pt       1.31776100       8.78351400       4.71804200       0.08778827       0.13228532      -0.11424132
Pt       4.08965600       8.76679000       4.70020300      -0.07049143      -0.01615630      -0.39115635
Pt       6.86078600       8.72632900       4.64630200      -0.24788779      -0.07672070      -0.00374044
Pt       9.65303500       8.67885000       4.72059100       0.07048783       0.42453390      -0.29342974
Pt      11.06005500      -0.01358600       7.15864800       0.44377655      -0.22913416      -0.30518328
Pt       2.55690800       0.00407500       7.09236400       0.05355145      -0.25963053      -0.44253780
Pt       5.51368200      -0.28853200       7.03238200       0.25260319      -0.26164319      -0.46138295
Pt       8.18585500      -0.27295600       6.92399200      -0.02655795       0.25170331      -0.09790967
Pt       1.15777800       2.40529600       7.04226400      -0.03364546       0.11166765      -0.22911513
Pt       3.94884500       2.54688300       7.11015500       0.05987894       0.33436171      -0.15718286
Pt       6.65838800       2.14750700       7.24453600       0.24221439      -0.30629091      -0.21579579
Pt       9.52298700       2.08169300       7.28512000      -0.25834344       0.25324391      -0.94723818
Pt       5.44945900       7.23567800       8.91880700       0.40584609      -0.07430592      -1.09762048
Pt       2.44781300       4.77829100       6.99319000      -0.11250994       0.43691119      -0.35814236
Pt       5.16679600       4.93691500       7.31981700      -0.67648455       0.61459912       0.33880560
Pt       8.26602100       4.50612800       7.24830400       0.31424488      -0.23287409       0.19486958
Pt       1.22020900       7.20905400       6.96860600      -0.30172566      -0.41940866      -0.22738375
Pt       3.81315100       7.18751000       6.96802600       0.04987581      -0.27632213      -0.55264273
Pt       6.97978000       6.93887800       6.88092000       0.19001328       0.32771489      -0.52607706
Pt       9.75037100       6.73619000       7.09405600       0.70958185      -0.37041423       0.00593102
O       -0.49251400       5.99012000      14.46950900      -0.00272743      -0.20328994       0.17792858
O        9.62755300       8.46517500       8.03352600      -0.37317508       0.11793703       0.57125854
O        6.68854300       3.99104500       8.22794200      -0.85899432      -0.28417274      -0.10796114
O        7.81805200       1.41092200       8.77329100       0.15038486      -0.08843927       0.63863842
O      -12.04745400       4.81711000       6.65822100      -0.18177032       0.18538324       0.62903483
O        4.11756500       0.79316500       8.07974700       0.04707845      -0.07238890       1.02612632
O        9.50280600       0.83066400      13.10642400       0.00887853       0.15264126       0.59761492
H        8.87898100       1.00564300      12.36970300      -0.09928110       0.04454488      -0.14123636
H        9.87343300      -0.06544400      13.00831100      -0.04170484       0.10412197      -0.10008843
O        4.24402300       6.59123000      10.28058400      -0.75517111       0.13628493       1.24080162
H       -1.19949600       5.46310600      14.05614400       0.06664608       0.19033827      -0.04090008
H        3.32995200       6.84872600      10.02690400       0.24002895      -0.29615203      -0.12907710
O        6.45296500       9.08439900       9.97823300      -0.18408123       0.37129509       0.98356376
H        5.62314000       9.60641900       9.93837000      -0.06927118      -0.13209043      -0.04366402
H        7.11253700       9.70857900       9.51391200       0.00474729      -0.06278737      -0.70840428
O        3.59958700       6.61816900      15.64135000       0.17287790      -0.24572343       0.00444904
H        4.02143700       5.79177900      15.95801800      -0.39041793       0.60947182      -0.09180433
H        3.79071400       6.60625500      14.68708300      -0.19793228       0.23614247      -0.09810559
O        2.35896300       3.88149200      25.02023400       0.09517505      -0.05907676      -0.32034354
H        2.42384600       3.12109600      24.41740500       0.00604672       0.15341928       0.22457868
H        1.42966700       4.19631600      24.93412600       0.03394011      -0.00718521       0.08387762
O        9.14509900       3.36415100      10.00555900       0.20267853      -0.00905491       0.54856187
H        9.82207500       3.60936700       9.34980500       0.25473206       0.06960285       0.09865581
H       -2.38008400       2.57503300       9.56888400      -0.15787603       0.17410689      -0.06121231
O        7.23460500       1.27331600      11.73607600       0.23362536       0.17050478       0.25158966
H        7.58868400       1.61540800      10.87853200      -0.09911038       0.02143220      -0.27211632
H        7.00731000       0.33046200      11.52527600      -0.06593492       0.03753040      -0.38370375
S        3.60787300       1.94641100      11.29416100       0.06731354      -0.33703771      -0.33021555
O        3.66581100       0.51118200      11.44702600       0.02692305      -0.50923324       0.30018094
O        2.82022500       2.56498400      10.27112600      -0.44330553       0.34895220       0.03286899
O        5.04801700       2.54527600      11.23201800       0.31801360       0.48855489       0.04413453
H        5.80154800       1.94760100      11.60614200      -0.09060003       0.17138872      -0.15178200
C        2.97527800       2.70393600      12.92324700      -0.18771780       0.02940982      -0.06778560
C        3.55742200       2.08911600      14.27149900      -0.13024387      -0.25511002      -1.04085926
O        3.63079100       3.08969600      15.25289600       0.12788411       0.13132836       0.66906897
F        1.61954500       2.56736000      12.92151700       0.14000995      -0.14123842      -0.26982547
F        3.27797800       4.02882400      12.85866300      -0.08621629       0.23123475       0.03587203
F        2.76898400       1.07524100      14.72918300      -0.09192877      -0.14684960      -0.02900719
F        4.79795100       1.58660400      13.99837400       0.06455012      -0.30641638       0.29039892
C        4.31353100       2.77499900      16.43699500       0.09955929       0.45933327       0.42000002
C        5.56534300       3.69263400      16.57193800       0.54885806      -0.12377394      -0.64937535
C        3.39472100       2.88692000      17.72004100      -0.48855129      -0.43717190      -0.35408618
O        4.11806800       2.44655900      18.79932800       0.95979648      -0.32793909      -1.20395257
F        6.23539200       3.77848100      15.40398100      -0.51057536      -0.16461798       0.19125307
F        6.38901500       3.19135900      17.52106400      -0.19214781       0.09051569       0.28378245
F        5.25964400       4.97121500      16.96912900      -0.07438511       0.06966507      -0.06317561
F        4.77042900       1.48282200      16.47334300       0.13347420      -0.38811885       0.24231826
F        2.31358800       2.09643100      17.45957400      -0.26829464      -0.26518926      -0.03420030
F        2.91785600       4.16075900      17.89519100      -0.15925980       0.24369740       0.12277996
C        3.83301200       2.36997700      20.18018600      -1.30144007       0.83623594       1.23692286
C        2.42230300       1.75974500      20.48870400       0.87540721      -0.30713424       0.66815109
F        4.77444600       1.47536800      20.64493100       0.57364915      -0.49447820       0.00885539
F        2.43670500       0.49399000      19.98438800       0.08590313      -0.13221076      -0.02228118
F        1.46219100       2.48166600      19.82017800      -0.46688203       0.60071773      -0.63645555
C        1.90799500       1.65143200      21.96267700      -0.06600434       0.14895276      -0.06433106
F        2.82989200       1.10046400      22.79039300      -0.15220829      -0.08981224       0.10778322
F        1.55534600       2.88115300      22.45251100       0.10403250      -0.16297607      -0.48209216
F        0.78552000       0.87934000      22.00653600       0.10605339      -0.33224260      -0.10955317
C        4.17915100       3.72209800      20.88502300       0.15071654      -0.55839325      -0.24929830
F        4.29187100       3.57659100      22.23301900      -0.06625631      -0.32704743      -0.07131726
F        3.21358800       4.66709400      20.65075700      -0.30684319       0.19124535       0.15519848
F        5.35387600       4.19464500      20.41815200      -0.11966583       0.15484161      -0.17691968
O        0.75688300       4.12891300      15.95169000      -0.01785014       0.01019442       0.17591695
H        1.12984700       3.99896800      16.83793200      -0.14359972       0.07190605      -0.29060976
H        0.45318500       3.22358500      15.63534000       0.06099377       0.09149117      -0.08125458
O        1.21445300       7.03086400      30.72005800       0.02805382       0.02398634      -0.51239313
H        0.76002100       7.86630000      30.50037700       0.01439098       0.01931619       0.26126318
H        2.08795100       7.03728100      30.20730500      -0.14086510       0.04327218       0.32670599
O        9.70893800       4.87836900      26.88897200      -0.00316657       0.04623769      -0.30768342
H        9.94434600       5.04575600      27.82266200      -0.06131104       0.00390653       0.14863446
H       10.45325400       5.21982500      26.32585800      -0.19483821      -0.07177904       0.33806255
O        8.79321900       4.88732800      29.72719000       0.11022114       0.01999650      -0.52857925
H        8.51691000       3.98915200      29.41172400       0.00915673       0.12597687       0.21782439
H        8.83872100       4.79053800      30.71059800       0.09355011       0.06961262       0.20295570
O       10.78802700       1.87236000      15.22338500       0.07020706      -0.07267635       0.37291900
H       10.07352400       2.04446600      15.91499900       0.22955993      -0.11945809      -0.28763653
H       10.33438900       1.79601100      14.34562000       0.01286426      -0.06642086      -0.13793352
O        6.61089800       7.56429900      22.01303500      -0.10483314      -0.03524263      -0.22618099
H        7.02344200       8.33081400      21.52214400       0.03111858      -0.05355968       0.03333127
H        7.14772000       6.75078800      21.76822900       0.01832682       0.02732569       0.03739413
O       10.64444700      -0.79006600      15.10493200       0.10568983       0.05408882       0.22760332
H       -0.12042000       0.14154400      15.22388400       0.05799021      -0.15728005      -0.03061978
H       11.37961800       8.19946000      14.97799000      -0.13481375       0.06311647      -0.11633317
O        4.25113100       6.65728700      26.78168700      -0.06471724       0.03152995      -0.55464613
H        3.81115500       6.69347100      25.87767500       0.27226288       0.05641361       0.34642687
H        5.14599200       7.02330100      26.66159600      -0.02981863      -0.05173111       0.01625143
O       -0.09294700       4.73995100      19.38919000       0.26441381       0.04395147       0.04638425
H        0.58037500       4.11801100      19.71319700      -0.13416686       0.25870699      -0.02800754
H       10.94528600       5.49763200      20.03718200       0.13771961      -0.01506872      -0.02858193
O        4.07779300       2.33789200      30.87696700      -0.06451515      -0.00998102      -0.75297590
H        4.30584000       3.29957600      30.60726000      -0.01083412      -0.06593543       0.03210948
H        4.74818300       1.81868200      30.35125800      -0.09640815       0.08355109       0.31587290
O        3.01202300       8.71269300      17.42306000       0.26312158      -0.10165731       0.20566513
H        3.72451400       8.40979500      18.15507800      -0.18624816       0.00419038      -0.09079954
H        2.00059800       8.79255900      17.83207400      -0.23554084      -0.22055542       0.10655629
O        7.80274600       7.29080400      28.93807000       0.01510266       0.03528068      -0.36069340
H        8.52913600       7.97343900      28.99996200      -0.03972920      -0.06253386       0.16071196
H        8.13565200       6.42301000      29.30739100       0.06699061      -0.15669949       0.20629351
O        4.78470000       7.79963900      18.90971900       0.09405045      -0.06557291       0.15929477
H        5.58200100       8.38256900      18.77569200       0.08137439       0.05281201       0.03274454
H        4.61190800       7.69762800      19.86891800      -0.01084543       0.20006321       0.04424612
O        7.88209600       9.67865400      20.76388600      -0.05186892       0.02190220      -0.09668891
H        7.42005000       0.14948200      19.88823200      -0.01336511       0.07644404       0.05618118
H        7.84923200       0.95910600      21.19584700       0.00348385       0.00360469      -0.07064209
O        5.77724400       1.27411800      29.01895900       0.05365687       0.31541987      -0.21449224
H        5.74168200       0.28511100      29.25043700      -0.00175761      -0.15467861       0.18834206
H        5.20779500       1.42452300      28.24535000       0.01763468      -0.02044593       0.12276556
O        7.76207800       1.38742900      24.40415400      -0.04751193      -0.00138017      -0.02966590
H        6.83388300       1.58005200      24.62399000       0.14081522      -0.00963341       0.10722529
H        7.82346700       0.38951900      24.38996700      -0.04784926       0.06083282       0.06148177
O        8.31068100       2.57782000      22.01014900      -0.04314569      -0.16852503      -0.18524440
H        8.15135200       2.23001700      22.93880200       0.04005316      -0.04465647       0.07161551
H        9.27642300       2.54921000      21.88382900      -0.08466643      -0.01840653       0.05390472
O        3.03496300       6.44723300      24.44746200      -0.07549428       0.01860348      -0.39814153
H        3.02547200       5.45230000      24.42528200       0.03194853       0.03689482       0.02003815
H        3.34360000       6.77508000      23.56191500      -0.03622736      -0.06424159       0.14731805
O        8.32744400       2.30241000      28.67474300       0.12510012      -0.14543292      -0.22090200
H        7.38013100       2.00141200      28.74013400      -0.07868810      -0.03401981       0.07364874
H        8.47313200       2.56225700      27.74616400      -0.09533086      -0.03140706       0.09241677
O        0.73703300       8.55925200      18.30359100       0.13331119      -0.06267784       0.23980270
H       11.41917500       7.81375600      17.78502500      -0.18600699      -0.00271200      -0.00954702
H       11.11990500       9.26442000      18.49034900       0.03313741       0.06333450       0.03331636
O        7.56363200       6.49613500      26.34668500      -0.07769823      -0.04881960      -0.49383542
H        8.35652200       5.88469500      26.40074900      -0.04580781       0.04900832       0.13292656
H        7.60082500       6.93265700      27.24424100       0.08221823       0.01328489       0.33631832
O       10.83639400       7.68246700      10.25335400       0.12617587      -0.08629034       0.72705506
H       10.83598800       6.92030700      10.85824300       0.04763843       0.01290180      -0.26561914
H       10.80167500       7.29932000       9.35304400      -0.00354452      -0.01779204       0.17159030
O        8.46840600       4.80376700      18.01655200      -0.16365073       0.01735752       0.20655113
H        9.12451500       5.49994100      17.77395000      -0.08269491      -0.13757408      -0.00144959
H        7.58329800       5.19221500      17.93848000       0.11243846       0.08994285      -0.04986912
O        8.21353800       5.48941300      21.53837300       0.04530027      -0.08355777       0.03666136
H        8.12976700       4.51180900      21.61513400      -0.01342065       0.04899649       0.01127069
H        8.85838200       5.66727800      20.82723200      -0.09319941      -0.07586143       0.04047277
O        0.34973200       5.85757500      24.99279500       0.19082163      -0.04199332      -0.18084318
H       -0.16294700       6.35122600      24.30599700       0.07571797      -0.03825390       0.15836043
H        1.24315500       6.27694800      24.93168700      -0.13443117       0.00608477       0.06078911
O        5.67004100       8.44964900      29.90025100       0.08831380       0.01248219      -0.53606631
H        6.48906400       7.92798300      29.60936100      -0.08862593       0.04670049       0.20158684
H        5.75397500       8.55728700      30.88927400      -0.03060127       0.05212758       0.35421680
O        8.50083500       8.23810300      16.57938600      -0.01433750       0.00686022       0.22932236
H        8.81789300       7.46155200      17.07706600       0.00023551       0.09252887      -0.10509796
H        9.31281600       8.47081900      16.02682900       0.06274521       0.08812200      -0.03528017
O        7.97000700       8.25626900      24.25186800       0.14485391       0.09355114      -0.23387887
H        7.36984200       7.94427900      23.51153000       0.07279462       0.02714417       0.20800997
H        7.82231200       7.63542000      25.02396900      -0.04754227      -0.17829162       0.29949189
O        4.89393400       4.60286800      29.96413500      -0.01496794       0.16632930      -0.32930692
H        5.30007600       4.44144500      29.06811400      -0.08775021       0.02002015       0.41392553
H        4.32063300       5.40158700      29.83210100       0.03552802      -0.06785759       0.21572174
O        6.80047000       9.50573500      18.27553000      -0.10008174       0.02529040       0.01488309
H        7.48957800       9.13287800      17.64740600       0.11673015      -0.04485444      -0.16044611
H        6.38965600       0.66021800      17.83354200       0.09927956      -0.11193864      -0.03457774
O        8.99036400       2.22915500      17.12423200      -0.10761302      -0.04627420       0.22469386
H        8.75239200       3.15883600      17.39188600       0.06132647      -0.08328524      -0.06499132
H        8.26021300       1.84775700      16.56515200       0.05991288      -0.02081205      -0.14227560
O        3.50720500       6.93264700      29.37806000      -0.10943953      -0.11990598      -0.37954011
H        3.57526100       6.86807800      28.38689900      -0.04779115       0.06607941       0.46683935
H        4.24791000       7.55730500      29.62819000       0.06346357       0.02306640       0.16272102
O        5.68071200       4.28579700      27.36215900       0.13796129      -0.07281159      -0.55259233
H        4.96208900       4.88177500      27.03702800       0.13062491      -0.10749629       0.15998022
H        6.47908600       4.78024800      27.07541000      -0.09710697      -0.02976669       0.12157462
O       10.09530700       0.65884500      19.08727900      -0.00200495      -0.03670970       0.07200324
H        9.63121900       1.22690300      18.41887400      -0.07550508       0.03512641      -0.03047940
H        9.41842000       0.35863700      19.74244200       0.08680456       0.00628635      -0.18099899
O       10.39324500       7.76898000      23.19964900       0.02354668       0.01614344      -0.17220633
H        9.48188300       7.99601400      23.57128600      -0.06765550      -0.00198181       0.10634546
H       10.95583800       8.54321500      23.37197300      -0.06572563      -0.03524263       0.07486693
O        9.60051900       9.33593300      28.95618200       0.17472807      -0.06804374      -0.09146083
H       10.28853000       9.32610700      28.26986600      -0.10293669       0.06348568       0.13905504
H        9.19945100       0.63008300      28.91301100       0.06353711      -0.00398367       0.13348654
O        7.49136200       0.91330000      15.22623300      -0.14935694       0.10805473       0.30081395
H        8.09117100       0.95885700      14.44288700       0.06763236      -0.08624663      -0.12438021
H        7.47331100       9.57251900      15.44122500       0.02453655       0.08661173      -0.11394822
O       10.57898900       7.05522500      20.59662300       0.05957092      -0.02693334       0.00157146
H       10.51653300       7.38936600      21.53268700       0.00869341      -0.05215689      -0.00969409
H       11.10047000       7.70044100      20.07491600      -0.04929988      -0.05901042       0.03256611
O       10.65478200       6.40747700      17.35616700      -0.09687352      -0.09656859       0.26504939
H       -0.36214900       6.04757800      16.44102700      -0.04718849       0.03679866      -0.08723497
H       11.00683800       5.71698200      17.99504300      -0.05884227      -0.01610076      -0.17754857
O        3.94108000       7.21576200      21.85030500      -0.06779640      -0.08967957      -0.10830310
H        3.77422500       6.33995800      21.45498100       0.07463605       0.21474987       0.10967504
H        4.93693000       7.30278200      21.94253100       0.01678725      -0.05694891       0.06068884
H       14.10602500       7.93118200      16.81736500       0.23775404      -0.10590015      -0.62560755
H        0.11399400       5.30656100      14.84841200       0.05191726      -0.07606558      -0.27153937
245
Lattice="11.099 0.0 0.0 0.0 9.612 0.0 0.0 0.0 33.0" Properties=species:S:1:pos:R:3:REF_forces:R:3 system_type=FORCED_Naf0.25PtOH_neb_img06 REF_energy=-249519.5641946094 al_round=1 source=cp2k_sp REF_stress="-0.019189387388856404 -0.006922575970796489 0.00508408966642688 -0.00041926522629714004 -0.0038219069309932277 -0.0017811941926747636" _cp2k_dir=cp2k_sp_round1 orig_idx=552 dE_per_atom_meV=-15.999893209901733 F_rmse_meV_A=216.39984548943272 pbc="T T T"
Pt      11.06747900       9.25827800       0.00231000       0.09134616       0.25494855       0.18467670
Pt       2.79683700       9.26279600       0.00198000      -0.20972182       0.14343209       0.23246528
Pt       5.51664700       9.26068100       0.00297000       0.28291599       0.05083586       0.29417690
Pt       8.34711400       9.26097000       0.00231000      -0.25944541       0.00797299      -0.01472008
Pt       1.35818500       2.05168100       0.00132000      -0.00436573       0.00531087       0.10904358
Pt       4.19653200       2.05120100       0.00231000      -0.32720273      -0.05976581      -0.54521172
Pt       6.90923800       2.05293100       0.00000000       0.51816886      -0.03601653      -0.01312240
Pt       9.74403400       2.04850900       0.00132000      -0.35817527       0.09223628      -0.05498459
Pt      11.06747900       4.45227800       0.00231000       0.13713648      -0.02702898       0.06917708
Pt       2.79683700       4.45689200       0.00198000      -0.18281573       0.10425876       0.31410090
Pt       5.51664700       4.45468100       0.00297000       0.26309021       0.21186560       0.10382732
Pt       8.34711400       4.45497000       0.00231000      -0.19139602       0.03723935       0.13952607
Pt       1.35818500       6.85768100       0.00132000       0.27281206      -0.10176376      -0.41931970
Pt       4.19653200       6.85720100       0.00231000      -0.08598644      -0.02056266       0.12559788
Pt       6.90923800       6.85883500       0.00000000       0.20499253       0.10321900      -0.06724412
Pt       9.74403400       6.85450900       0.00132000      -0.55738127       0.07358241       0.08203002
Pt       1.38193600       0.68821900       2.37237000       0.11957739      -0.32137352      -0.12814122
Pt       4.16712000       0.69168000       2.37963000      -0.02711846       0.59053822      -0.68606602
Pt       6.93188000       0.68687400       2.37171000      -0.00353372       1.58327413      -2.91879315
Pt       9.71717500       0.69196800       2.37963000      -0.01243848      -0.36771406       0.00471283
Pt      11.09367200       3.09573700       2.37963000       0.49430799      -0.36762921      -0.58126528
Pt       2.77919000       3.09045000       2.37105000      -0.06883872       0.03772014      -0.23336568
Pt       5.54550400       3.09429500       2.37963000       0.21224098       0.12377240      -0.11609612
Pt       8.32902300       3.08910500       2.37039000      -0.29254065      -0.07343997      -0.23891567
Pt       1.38193600       5.49421900       2.37237000       0.11195355       0.08192307      -0.20852060
Pt       4.16712000       5.49768000       2.37963000       0.02317438      -0.12867035      -0.01666435
Pt       6.93188000       5.49287400       2.37171000      -0.26986455      -0.14822462      -0.43492682
Pt       9.71717500       5.49806400       2.37963000       1.17260825      -0.94720527      -2.26399586
Pt      11.09367200       7.90173700       2.37963000       0.18242904       0.01933727       0.26514503
Pt       2.77919000       7.89645000       2.37105000      -0.12962680      -0.00895361      -0.25007425
Pt       5.54550400       7.90029500       2.37963000       0.07391459      -0.55017087      -0.37121282
Pt       8.32902300       7.89510500       2.37039000      -0.04469092       0.15340334       0.24473510
Pt      11.24485900       1.59323800       4.68009800      -0.01290231      -0.01046079      -0.04102195
Pt       2.85996800       1.68140100       4.66692600      -0.01786711      -0.00187485      -0.02075806
Pt       5.57882500       1.77367900       4.73471200      -0.10867951       0.18846393      -0.06239708
Pt       8.49170000       1.65605300       4.67218800      -0.09820998      -0.01378420       0.03024800
Pt       1.51609900       4.04695000       4.71518100       0.03872699      -0.05261557       0.07638491
Pt       4.25034400       4.06917900       4.71944000      -0.07428843       0.33648647       0.14085430
Pt       7.00806800       4.05310000       4.74920000       0.03561338       0.08440212      -0.11290795
Pt       9.93388000       3.91651700       4.59707400      -0.13096892       0.27982912       0.18140163
Pt      11.23867500       6.47809200       4.70923500      -0.04124050      -0.01984120      -0.03767232
Pt       2.80918100       6.42024300       4.66338300       0.07664716       0.02821940       0.10826299
Pt       5.61810000       6.38319600       4.69321500       0.44039504       0.41807323       0.36649998
Pt       8.58175500       6.19308200       4.45336300      -0.16690215       0.26015092       0.43588069
Pt       1.50389300       8.84307300       4.74113400       0.06583927      -0.13780703       0.03032719
Pt       4.23659600       8.92593900       4.59114300      -0.11073999       0.02815564      -0.11411019
Pt       6.85256300       9.18858800       4.49477700      -0.18765506      -0.04401472       0.33048448
Pt       9.78761100       8.82551100       4.76791600      -0.14217584       0.31622617       0.01177411
Pt      11.45223000       0.29451700       7.08826900      -0.04677094      -0.22243952      -0.20964725
Pt       3.06634000       0.29168800       6.98946500      -0.14442196      -0.25040181       0.20722270
Pt       5.77630600       0.00203700       7.09011600       0.14774794      -0.15411656      -0.23285609
Pt       8.73342300       0.23486400       7.11538600      -0.11834017      -0.36914925      -0.21947864
Pt       1.72206300       2.59992500       7.05341200      -0.11393382       0.22011627       0.02727066
Pt       4.55246100       2.58976500       7.08879600      -0.24479629      -0.08187679       0.16747242
Pt       7.23987600       2.64663100       6.92231400       0.45470631       0.04423686       0.42012446
Pt      10.07433200       2.59475800       7.04394900       0.19926308       0.13501995       0.10100631
Pt      11.58167600       5.00408600       7.02423700      -0.33747943      -0.12725522       0.25288653
Pt       3.12140500       5.06323400       7.14401600       0.21259837       0.62477400      -0.17349034
Pt       6.54725000       3.77468300      21.51630000       0.91032845       2.95294666      -4.66024979
Pt       8.88405600       4.93608000       6.78344500      -0.98161898       0.51685502       0.33486050
Pt       1.62290200       7.51006200       7.26095900      -0.24895325       0.26946654       0.10074714
Pt       4.15564900       7.48596000       6.71572500       1.31572358      -0.50330377       0.91897199
Pt       7.57859800       7.64274900       6.09706900      -0.76385887      -1.91621865       4.46086689
Pt      10.02839100       7.50761900       7.15711200      -0.18346005      -0.09559465       0.23983149
O        8.45365900       7.46759100      20.26324300      -0.86828269       0.70574679      -4.57009713
O       11.24156400       6.48940000       8.43151300       0.26618633      -0.23367781      -0.32642368
O        7.22476500       1.04180700       8.24899400      -0.20216894       0.18164588      -0.22202866
O        4.52298000       4.21128800       8.13825000       0.01635736      -0.28353254       0.13338370
O        8.55556700       0.63908400      12.72524700      -0.01085674      -0.01969619       0.02211612
H        8.57183400       0.88386200      11.76524200      -0.03794743       0.00391116       0.09837041
H        9.49627800       0.39828300      12.92542700       0.05639510       0.00239884       0.00347407
O        3.11248300       4.87032000      10.81419800      -0.04886999      -0.19737332      -0.17436040
H        3.30608900       5.77576000      10.48329400       0.04606183       0.07695415       0.02171554
H        2.25286700       4.96048000      11.27943000      -0.10796166      -0.06046155       0.08174515
O        3.41954200       7.56284200      10.09895200       0.00828512      -0.09874117      -0.09585793
H        2.48909900       7.86686700      10.19665000      -0.00837614       0.02703824       0.12527907
H        3.72147200       7.85711700       9.21631300      -0.03656366       0.06769972       0.14380130
O        0.98962400       7.81237200      11.46125400      -0.05763077       0.03336367      -0.15707076
H        0.19652800       7.27320100      11.21722500      -0.01201785      -0.01437658       0.03611218
H        1.51412600       7.24036600      12.05757900      -0.00254128      -0.05780097       0.02669114
O        3.67841400       6.64928800      13.53809400       0.04143333       0.20470971      -0.19323744
H        3.49471100       6.25682500      14.40154000       0.01128869      -0.19303895       0.07460262
H        4.24236200       6.01043600      13.06728300      -0.13515519      -0.07828547       0.03927926
O        9.39554100       6.65833800      11.27545800       0.14454126      -0.00518643       0.06615089
H        9.18319000       5.71000200      11.36284500       0.13535779       0.04355141       0.00737701
H        9.30367400       6.99269700      12.18491900      -0.05530392       0.03548534       0.01059243
O        8.73640400       1.93022200      10.32099000       0.06263979       0.01526618       0.03647573
H        8.62370500       2.73620300      10.86765200       0.05213375      -0.01692917       0.09034754
H        7.89929300       1.78143800       9.83911400       0.01737140       0.07604912       0.00688027
S        2.59946700       1.67206700      15.33375800      -0.38266245      -0.50948161      -0.54560973
O        1.87996500       0.56576300      15.96652600       0.19984826       0.09403245       0.37156094
O        1.81162200       2.41838000      14.32975800       0.10842549      -0.01849189       0.11897164
O        4.00210400       1.43451900      14.97952000       0.10859981      -0.07361377      -0.02659498
H        5.68666400       0.21883600      14.09991500      -0.07230560      -0.01616247       0.00508976
C        2.74643000       2.92682600      16.71836400      -0.76448467       0.49207062      -0.07253648
C        3.65115800       2.63570900      17.85716000       1.19422917       0.96609569       1.16822915
O        3.16379500       2.72762300      19.07518900       0.50575351      -0.54962219      -0.46875276
F        1.49299100       3.15913200      17.22536900       0.00806247      -0.51919576      -0.03522154
F        3.22074900       4.11375400      16.18608100       0.15250705       0.16035817      -0.10813855
F        4.28060000      -0.79545700      18.33722300      -0.02361147       0.99203143      -0.17030629
F        4.95881400       2.76389600      17.66909500      -1.01210249      -0.21306014       0.28691611
C        3.99788500       2.49807800      20.31870100      -0.10445827      -0.17464888      -0.45747179
C        4.78437000       3.78701400      20.69823900       0.88905412       1.30383685       0.48456608
C        2.87749000       2.19695100      21.39784000      -0.33819779      -0.19457699       0.84225952
O        3.48078900       1.95915800      22.60241600      -0.34303969      -0.25172182      -0.86856139
F        7.36715900       1.05657900      21.12873900       0.22175355       0.30205374       0.00484190
F        5.03690300       3.48986300      22.61354900      -0.90421591      -0.92183980       2.24297863
F        3.98544300       4.87320200      20.68464600       1.13157035      -1.45494522      -0.26452026
F        4.76640300       1.42856100      20.09377400      -0.13122963       0.30709156       0.37124521
F        2.20749700       1.06494500      21.03808200       0.49765968       0.36678075       0.05611176
F        1.98144300       3.21713200      21.38241200       0.26014115      -0.07748997       0.19466338
C        3.00524100       2.25486400      23.88497500      -0.30080469      -0.04511515       0.52430454
C        1.84579000       1.21881200      24.15808600      -0.01717189      -0.05163084       0.24487857
F        4.05442000       1.93071200      24.70282400       0.16244025      -0.07330627       0.05033346
F        2.28165000       0.00495900      23.72569500       0.18901672       0.13345415       0.22871610
F        0.76115200       1.60329600      23.42261200      -0.21551297      -0.02031274      -0.24131862
C        1.37939700       1.03459600      25.63436200       0.07139954      -0.04875686      -0.14343209
F        2.40759500       0.69336100      26.43582700       0.02356365       0.11341600       0.06144114
F        0.82186900       2.18048200      26.09536200      -0.29661534       0.30061803       0.37954473
F        0.45026100       0.05349300      25.66522900      -0.28717887       0.21964987       0.16317507
C        2.64429100       3.80226400      24.17934200      -0.31842858      -0.15373090       0.17518624
F        2.77740100       4.01656000      25.51313700       0.01581434      -0.33175461       0.13965925
F        1.37628600       4.10826400      23.82429800      -0.05023062       0.11670444       0.25812232
F        3.45070700       4.66904800      23.55603300      -0.19252319       0.49361019      -0.07503251
O        0.68469900       4.74334800      12.36765200      -0.04683008       0.04142819       0.13865703
H        1.01774300       4.03194100      12.94562700       0.04469092      -0.01002627       0.02609978
H        0.17850700       5.32767000      12.97578500      -0.05332417       0.00500285       0.08355675
O        1.34305800       7.02863900      30.73319000      -0.12703822       0.06529574       0.17115269
H        1.03754900       7.94149500      30.56225900       0.00615214      -0.02122652      -0.03455152
H        2.31107900       6.98503000      30.41931100       0.17841246      -0.00809949      -0.09431784
O        8.99910000       4.56255400      27.36497200       0.04350204      -0.08796927       0.11437810
H        8.86517900       4.70545000      28.34298300       0.03264684      -0.00032807      -0.15468632
H        9.94725100       4.40530200      27.23290200       0.00823473      -0.01537674      -0.02508780
O        8.10319000       5.19519400      29.86646000      -0.00112974      -0.01558551       0.14994006
H        7.16701100       4.84035400      29.86622400      -0.02094164      -0.01019083      -0.05138967
H        8.49163600       4.86515400      30.71494600      -0.02006695      -0.01212635      -0.15843653
O       10.29498700       6.28297500      14.28962500       0.08914992      -0.25269421      -0.07633194
H       10.78897900       6.33544900      15.15820500      -0.01653579       0.05345427       0.03664594
H        9.38461900       6.47552800      14.55565600      -0.16516922       0.01737397       0.00583126
O        6.89730300       8.21653700      21.92395900      -0.61917825       0.26715975       0.50994955
H        7.07952700       9.13582800      21.57024000      -0.24833105       0.19925331       0.40797342
H        7.32865500       7.67644800      21.20826900       0.08663384       0.29190662       0.87133767
O       11.10679000      -0.00144500      13.28313200      -0.00330541       0.03983359      -0.13177573
H       11.74421900       0.69963700      13.52061900      -0.02835670       0.01580252      -0.12846569
H        0.43161200      -0.59435000      12.60374000       0.02541330       0.03017755       0.06790130
O        6.27580500       8.90711100      25.55221600       0.13168626       0.00178229       0.05663472
H        5.48466200       8.41628300      25.21472300      -0.07194153      -0.03934971      -0.04501796
H        6.78562800       8.20503900      26.02204200      -0.06162061       0.00367719      -0.06562073
O       -0.22027800       4.45834400      18.95336800       0.07891590       0.07444167       0.01966226
H        0.74177000       4.61787000      18.83270600      -0.06720710      -0.00108295      -0.00170618
H       -0.44475000       5.14740300      19.64095500       0.13540304      -0.05803494       0.04584329
O        4.26399100       2.17290500      30.67786700       0.15285261       0.01742385       0.02844926
H        4.72941200       3.00044000      30.34691400       0.02401051       0.08096816      -0.11065463
H        4.81111100       1.42331800      30.36140300      -0.02652864       0.02903033      -0.04108623
O        2.43533500       5.74391500      18.34965900       0.15806269       0.02974818      -0.17390532
H        2.74496600       6.43029500      19.04281300      -0.07197444      -0.05097212       0.08450805
H        3.14722700       5.75416500      17.68984000      -0.07558632       0.02351943      -0.02134376
O        7.73287900       7.84900400      29.38811100       0.01097655      -0.04555224       0.29624150
H        8.44363500       8.54851700      29.59644300      -0.04664804      -0.01323038      -0.04269369
H        7.95321300       6.99246100      29.83731300       0.01068448       0.03490890      -0.06792032
O        3.23902900       7.58648900      19.99902300       0.38503610      -0.20084071      -0.00570528
H        3.85498800       8.12702100      19.22128800      -0.03056888      -0.21918810       0.42633213
H        2.45372600       8.11970000      19.77717000      -0.25606852      -0.38328209      -0.06926090
O        8.57306800       0.31467500      18.95444900      -0.04674626      -0.13855727      -0.08794459
H        8.13697900       0.56854700      18.05752300       0.26960024      -0.11789126       0.23393441
H        7.93880700       0.59309600      19.67383600       0.10505477       0.06929124      -0.07561923
O        5.53217100       1.02539100      27.48723300       0.21903641      -0.02506620       0.22524665
H        5.79086400       0.40814400      26.74115100      -0.04099419      -0.04101630      -0.04588751
H        5.25296200       0.42864300      28.20749500      -0.01104083       0.00064689      -0.05893946
O        7.99295000       1.72065300      24.20806100      -0.10840492       0.13204673      -0.07874261
H        7.04447800       1.57932300      24.35150800      -0.11001340      -0.09453330       0.13350814
H        8.31096500       0.81625400      23.99824800       0.06286193      -0.09062934      -0.07306870
O        8.88063600       2.89164100      21.60833900       0.30745151       0.37822524       0.54007620
H        8.12906600       2.06493100      21.50420900       0.00160334      -0.11445832      -0.19785514
H        9.55901400       2.51657500      20.79375400       0.44097508      -0.31553969      -0.01665047
O        4.14478700       7.28497400      24.77279000       0.07258482      -0.08795179       0.13499938
H        4.58316800       6.41464700      24.78984500      -0.05973290       0.04600527      -0.04071805
H        4.09233800       7.54815800      23.76211500      -0.02347674       0.01540605       0.02384904
O        7.80701600       2.06939100      28.48661300       0.08710692      -0.03439571       0.00523837
H        6.97915500       1.69354500      28.06168100      -0.09041851      -0.05723790      -0.01624012
H        8.18387300       2.67406500      27.81627600       0.01176434       0.01740380       0.03554962
O        1.10642100       9.19490400      19.31316100       0.72009252      -0.37600947       1.75520844
H        0.01870800       7.18484500      19.59944900       0.10187020       0.10744178       0.00210059
H        1.32376200       0.45534400      18.92114200      -0.03141220      -0.48015458       0.36801076
O        7.45356000       6.82528800      26.92486800       0.18667856       0.11010442      -0.00329564
H        8.12027700       6.09838600      26.84828000      -0.00689004       0.00457605       0.00161980
H        7.62234200       7.24094700      27.82199400      -0.00027819      -0.04437724      -0.15588497
O        5.97533400       8.12777700      16.90496900       0.80904189      -0.86646852      -0.80491167
H        7.67688500       7.42683900      19.58989000       0.90909998      -0.22343094       0.98549415
H        5.06228700       8.20281600      17.36935400       0.47153881       0.44105530      -0.36970872
O        5.07201600       2.38102900      12.51564200      -0.04141430      -0.10330025      -0.14072317
H        4.36811400       2.41899200      11.83992100       0.13603399       0.13369532       0.24133147
H        4.61281900       2.15198700      13.35245200      -0.02719456       0.05757266      -0.11445472
O        8.03618400       4.87566000      20.50497800      -0.49146435      -1.39052571       0.63569656
H        8.71458700       3.88270700      21.22000300       0.48416087      -0.67254716      -0.23342636
H        8.09090200       5.71597200      19.97947100      -0.15160974      -0.48675255       0.64520759
O        2.83324600       7.03965700      27.08834900      -0.05307631       0.01101461       0.05447551
H        1.93384600       6.70917700      26.93969100       0.01223897      -0.00413845      -0.03634306
H        3.19140200       7.25885800      26.17554700       0.07202895       0.03442090      -0.09771890
O        5.36717600       8.89984500      29.86756100      -0.08279724       0.11325093       0.12795404
H        6.29360200       8.51759200      29.71867100       0.13046447      -0.04276053      -0.07051971
H        5.33760000       9.00847900      30.86109200       0.01411330      -0.02477001      -0.05332366
O       10.17916400       9.34420600      15.88647900       0.02068555       0.06517541       0.12539117
H       11.04053800       9.60126700      16.27423400      -0.14156032      -0.09675165      -0.02649471
H       10.41861600       9.23951300      14.93749600       0.02540507      -0.06185869       0.01159722
O        8.83392200       8.54491900      23.74483100      -0.11949768       0.00793854       0.08767360
H        8.11027800       8.26543200      23.10510100      -0.11761667       0.15824216       0.07716190
H        8.51171200       8.28810300      24.62414500       0.02363718      -0.02924733      -0.00621281
O        5.44080000       4.45533300      29.63099300      -0.02896348      -0.02063362       0.23131034
H        5.39587400       4.47585500      28.63207200      -0.02215880       0.01291157      -0.22531659
H        4.88405500       5.23814300      29.87148900      -0.01767685       0.02458900      -0.05402248
O        7.89954700       1.17430300      16.59180000      -0.15474443      -0.16627583      -0.26323625
H        8.72677900      10.37874500      16.22380000       0.13570078      -0.08887944      -0.03931011
H        7.18686900       0.70301100      16.09674900       0.15000383       0.02161629       0.02797823
O        8.80260700       3.42447500      12.85043300      -0.04482359       0.03362952      -0.07561358
H        8.64030700       2.49627300      13.14895200      -0.03649733       0.03802508      -0.13599183
H        9.48030400       3.76990700      13.45538900       0.02153916       0.04739212      -0.09566150
O        3.77758800       6.79115300      29.70263000      -0.19938444      -0.05101840       0.12406808
H        3.47180900       6.85856400      28.76366000      -0.05153674       0.00425260      -0.22745729
H        4.37849300       7.59836500      29.80310700      -0.05750118      -0.04491975      -0.05498305
O        5.23548600       5.19447100      26.96560800       0.10904512      -0.05164421       0.37356178
H        4.42697200       5.73050300      27.08543700      -0.04353084      -0.00560295      -0.10330230
H        5.98866900       5.84525200      26.96222600      -0.01397498      -0.00788403      -0.02193408
O       10.36564000       2.01582500      19.86706300      -0.10315935       0.11107732       0.12106914
H       10.58162300       2.86784800      19.37361400      -0.06039882       0.00771382      -0.06146788
H        9.74534200       1.42049100      19.32322900       0.02564264      -0.09235249      -0.02464454
O       11.02208700       8.68576600      22.18620100      -0.07023123       0.01587348      -0.03648036
H       10.29352100       8.63681700      22.85883400       0.03458905      -0.03100751       0.03431137
H       10.86696800       9.52521700      21.72191200      -0.07455686       0.00073328      -0.03211308
O        9.35471600       0.25256900      29.70541800       0.01850732       0.04085072       0.12777561
H        9.45733300       0.59023900      30.62016600      -0.01121052      -0.02245653      -0.11920715
H        8.81881700       0.95823200      29.21977900      -0.07047651       0.11607915      -0.06419531
O        6.51180200      -0.23834200      14.33503100      -0.07283267       0.04477525       0.13632350
H        7.17915500       0.08685000      13.68141600       0.14711905      -0.00866770      -0.08698505
H        5.93739000      -1.57374800      15.91983300      -0.20175962       0.30169841       0.65593526
O       11.11103300       6.64610100      20.40999100      -0.01694151      -0.17091255      -0.20416463
H       10.91298100       7.31258200      21.12289100       0.13950241      -0.04839794      -0.00228982
H        8.84217300       8.23108500      19.67219700       0.08212156      -0.33402541       1.15746599
O       11.23228500       6.33210400      16.79209200       0.12390918       0.08225988       0.06503349
H       12.11643000       6.30781200      17.22980100      -0.05070113       0.00113334      -0.00848875
H       10.72497100       5.66349900      17.29434300       0.09032183      -0.05800666       0.01560403
O        4.31975400       8.07536800      22.36590600      -0.12670397      -0.11049831      -0.00528002
H        3.87979300       7.86786500      21.48480100      -0.11243949      -0.05625368       0.21582921
H        5.30263900       8.10501500      22.17717500      -0.07768486       0.03314615       0.03990764
H       12.64717500       9.17071800      20.25565600      -1.64955255       0.61359433      -2.38026989
256
Lattice="11.099 0.0 0.0 0.0 9.612 0.0 0.0 0.0 33.0" Properties=species:S:1:pos:R:3:REF_forces:R:3 system_type=FORCED_Naf1.0PtO_neb_img03 REF_energy=-254724.30688430055 al_round=1 source=cp2k_sp REF_stress="-0.02274320381718911 -0.006611736087770208 -0.005449168814966004 -0.00019440441614129795 0.0021204073065516946 -0.0008052915323067931" _cp2k_dir=cp2k_sp_round1 orig_idx=576 dE_per_atom_meV=-15.008256011014964 F_rmse_meV_A=147.24745878197547 pbc="T T T"
Pt      11.06747900       9.25827800       0.00242800       0.09082525       0.39065499       0.10855558
Pt       2.79683700       9.26279600       0.00188800      -0.09287134       0.00556232       0.15997405
Pt       5.51664700       9.26068100       0.00305700       0.28115581      -0.12291520       0.00792260
Pt       8.34711400       9.26097000       0.00242800      -0.16250196       0.04629632      -0.14006240
Pt       1.35818500       2.05168100       0.00125900       0.05622592       0.04685013      -0.06848237
Pt       4.19653200       2.05120100       0.00242800      -0.31921894      -0.23892029      -0.58351088
Pt       6.90923800       2.05293100       0.00000000       0.40398924      -0.00375535       0.00998514
Pt       9.74403400       2.04850900       0.00125900      -0.16952210      -0.00116265      -0.05414281
Pt      11.06747900       4.45227800       0.00242800       0.15073248      -0.07360092      -0.04821024
Pt       2.79683700       4.45689200       0.00188800      -0.23401206       0.13663666       0.46761737
Pt       5.51664700       4.45468100       0.00305700       0.34622118       0.35806265      -0.01815456
Pt       8.34711400       4.45497000       0.00242800      -0.20946316       0.08955513      -0.09101912
Pt       1.35818500       6.85768100       0.00125900       0.30599164      -0.14914251      -0.53118584
Pt       4.19653200       6.85720100       0.00242800      -0.15287523       0.08659939      -0.06442414
Pt       6.90923800       6.85883500       0.00000000       0.26781384       0.01841990      -0.09851748
Pt       9.74403400       6.85450900       0.00125900      -0.48243978      -0.00707568       0.04336834
Pt       1.38193600       0.68821900       2.37238200      -0.02933475      -0.07488133      -0.23263960
Pt       4.16712000       0.69168000       2.37975600       0.09269342       0.14328862      -0.16820672
Pt       6.93188000       0.68687400       2.37175300       0.11515766       0.10991775       0.16988668
Pt       9.71717500       0.69196800       2.37975600      -0.27902179       0.07605272      -0.03052568
Pt      11.09367200       3.09573700       2.37975600       0.01648746      -0.01016614      -0.00208671
Pt       2.77919000       3.09045000       2.37112300      -0.25382755       0.07400150       0.00197872
Pt       5.54550400       3.09429500       2.37975600       0.05850340       0.04218923      -0.12925708
Pt       8.32902300       3.08910500       2.37049400      -0.25399056      -0.13697759       0.18542489
Pt       1.38193600       5.49421900       2.37238200      -0.27188647      -0.09677633       0.04352415
Pt       4.16712000       5.49768000       2.37975600       0.15219286      -0.03378430       0.24699150
Pt       6.93188000       5.49287400       2.37175300      -0.08298390      -0.03060127       0.09698099
Pt       9.71717500       5.49806400       2.37975600       0.08167778       0.11540449       0.07186337
Pt      11.09367200       7.90173700       2.37975600      -0.06443802      -0.32816792       0.18327545
Pt       2.77919000       7.89645000       2.37112300       0.02579691       0.18326516      -0.25826785
Pt       5.54550400       7.90029500       2.37975600       0.00668230      -0.15827764       0.47970567
Pt       8.32902300       7.89510500       2.37049400      -0.09095947       0.00852321      -0.15752482
Pt      10.89922100       1.63303600       4.70047500      -0.24342435      -0.21269504      -0.31644626
Pt       2.58017500       1.62182500       4.64732200       0.14967267       0.19466698       0.09741088
Pt       5.40144200       1.67036200       4.71264500       0.23774633      -0.29977882      -0.19907385
Pt       8.18107500       1.61747100       4.76050600      -0.17811781       0.13759877       0.15758704
Pt       1.07382500       3.92213000       4.77270300       0.08848092       0.09938343      -1.02666060
Pt       3.91896900       4.00331400       4.71315700       0.19401032      -0.03268592       0.59574162
Pt       6.74954800       4.05830300       4.72213300       0.06272978       0.12937741       0.08326827
Pt       9.54193700       4.02672300       4.70064200      -0.42640206       0.00641593      -0.02187546
Pt      -0.15144500       6.38468200       4.79526000      -0.04558463       0.05381885      -0.23657853
Pt       2.64743800       6.44547500       4.60094600       0.10439965       0.05994270      -0.01528624
Pt       5.43309400       6.43813900       4.77750800      -0.04876612       0.05372372       0.18378812
Pt       8.18780800       6.41523900       4.67428400       0.01244928       0.11565543       0.16327175
Pt       1.26436800       8.82747800       4.67868400      -0.00665813       0.19059178      -0.11654297
Pt       4.05118300       8.88754400       4.72834200      -0.13254963      -0.09468397       0.01101152
Pt       6.79539300       8.84320800       4.74031400      -0.02825385      -0.11615114      -0.01973733
Pt       9.61803500       8.82999000       4.64073100      -0.03246841       0.08497497       0.09007758
Pt      10.82776600       0.31949100       6.95847600      -0.05815373      -0.50399128      -0.17697367
Pt       2.61261900       0.10186600       6.99619400      -0.66809349      -0.47193939      -0.24128519
Pt       5.06817400       0.96398000       7.17549800       0.64672351      -1.07749439       0.04557024
Pt       8.09389400       0.10462400       7.03349100      -0.22230480       0.34195829       0.06620385
Pt       3.08240900       2.64286900       7.12807600       0.06680344       0.50818269       0.03363775
Pt       4.91116500       4.66598100       7.15127400      -0.85004688      -0.14250186      -0.69648259
Pt       6.93095100       2.70102200       7.02064700      -0.07695158       0.32354919      -0.11405106
Pt      11.47909600       2.77049700       7.26093200       0.59199552       0.26467606       0.35377919
Pt      -0.07089000       5.32824700       8.16898700      -0.32025303       0.20209541       0.31175605
Pt       2.11320200       5.00176100       6.77220400       0.86572855       0.52439401       1.13947393
Pt       7.30914200       5.78664600       7.06967400       0.05750735       0.12584060       0.11990803
Pt       9.18572300       3.80375200       7.20909400      -0.04686299       0.22421358       0.01906525
Pt       0.98401000       7.51597100       7.01278000       0.43078631      -0.09500227       0.50354288
Pt       3.67338200       7.17687100       6.95800500      -0.62879161      -0.18338960       0.12201531
Pt       6.00836000       8.14534700       7.19883000      -0.09950530      -0.60405811       0.23846058
Pt       9.43496200       7.39695100       6.97667500       0.08171584      -0.35110422       0.12565034
O       10.96481900       1.86497800       9.19997000       0.25742144       0.55888434      -0.46805137
O        3.94967000       7.43305100       8.97441000      -0.14589469       0.09762479      -0.19104532
O        7.45883800       5.77056700       9.15726500      -0.22868525      -0.31748601      -0.25899958
O        5.27693800       7.84774400       9.11243000       0.53123778      -0.20786034      -0.52915724
O        0.57860000       6.57082300       9.60859000       0.01433801      -0.42858802      -0.34914555
O        2.68594800       2.01449700       9.18101800      -0.17470082       0.29936333      -0.13371074
O        8.65301000       3.24875800       9.15810800      -0.02077966       0.42266882      -0.12613010
O       10.85474700       0.55896000       8.96482000       0.07296483       0.12484249      -0.20580602
O        8.26870900       8.93459100       8.98267200      -0.11713638       0.86320630      -0.33475046
O        1.02375100       7.71795600       9.05438800       0.39406324       0.12647155       0.17057522
O        9.22374500       7.99691300       8.94520400       0.16754955      -0.53861633      -0.21053377
O        8.63866900       5.53376400       9.61756100       0.05032575       0.04517377       0.36093560
O        4.81238400       0.73475800       9.20347500       0.25292047       0.40863471       0.29055473
O        2.55208000       0.72641800       9.09645300      -0.17960597      -0.90277507      -0.26510955
O        7.35990800       2.92006400       9.04063500      -0.29475283      -0.32556288      -0.12380480
O        4.69494600       1.90172500       9.70575900       0.10293669       0.12550173      -0.06085133
O       10.48571000       2.45057300      12.75967200      -0.15745231      -0.54034514      -0.18227632
H       10.50597500       1.80317600      12.04610700      -0.05822624       0.08070282      -0.67372884
H       10.67529600       1.84530900      13.53397800       0.05057823       0.23034823       0.20981180
O        7.29021600       4.73485900      15.93569100      -0.54198704       0.66773714      -0.50785565
H        6.50819000       4.23488500      16.23438900      -0.01776221       0.20280452      -0.09591707
H        6.94701500       5.53120600      15.50639300      -0.56779527       0.25413403       0.21557108
O        3.18393300       9.10410100      12.20229600       0.20100577       0.16771153      -0.19427360
H        3.56174700      -0.08949700      11.40299400      -0.22397858      -0.20831439       0.15882940
H        3.83630400       9.29166800      12.89932600      -0.13157570       0.11119148       0.03974823
O        0.85644800       8.17615000      13.75612400       0.03062338       0.18814820       0.04715455
H        0.06386100       7.91059400      13.23314500       0.01606168      -0.09436772      -0.09979892
H        1.57530900       8.39538800      13.12277400      -0.07325382      -0.02009729      -0.08354338
O        4.67246400       5.02824800       9.30410500       0.85811089      -0.69466379       0.18189579
H        4.16668000       5.90082900       9.26481300       0.36050520       0.19093116       0.37190547
H        5.58579500       5.21193500       9.67596700      -0.80525877       0.06082613      -0.33428097
O        9.63649300       7.22697000      12.47545200      -0.14622996       0.08378300      -0.11162754
H        9.36304600       7.58765000      11.61543600       0.04606543      -0.06184326      -0.02942576
H        8.93663100       6.57052200      12.70927000       0.02225136      -0.08038966      -0.01834122
O        5.08915200       2.55927600      12.23901400       0.26269786       0.28601674      -0.02456946
H        4.15315400       2.69817900      11.97325100       0.69467407       0.02495821      -0.01145786
H        5.65733000       2.99406900      11.55607300      -0.73389626      -0.31264977       0.55176958
S        3.66071500       0.55473200      16.35459700       0.04574199      -0.18852461      -0.00337072
O        2.91701200       0.93477400      15.13436400       0.09220285       0.00114414       0.76818346
O        5.13456200       0.68542200      16.17404700      -0.32115086      -0.04481845       0.23497622
O        3.22375200      -0.67073000      17.04686700       0.14825548       0.23559174      -0.15547256
H        6.18573600      -3.99405800      26.58826500       1.60573118      -0.06278120      -4.31871676
C        3.20234400       1.98640800      17.67611300       0.13683669       0.24983566      -1.02827011
C        3.11561200       1.75042300      19.15979700       0.15938218      -0.67229570       0.66938059
O        3.00301900       2.74539300      20.00192800       0.53165429      -0.11184454       0.01629051
F        1.91738800       2.35749200      17.30601200       0.00553147      -0.16556363      -0.01641187
F        4.06428500       3.01936000      17.48178300      -0.18859095      -0.11150927      -0.32799514
F        2.93953400       0.52549500      19.61734600       0.19103195       0.51232577      -0.11097499
F        6.44948700      -4.08861400      25.57339100      -1.60118752      -2.18660513      -0.44312195
C        3.65796800       2.73068200      21.35542500      -0.11401455      -0.14588389       0.02652659
C        4.49381600       4.09153000      21.37396000       0.16416341       0.32429635      -0.61867123
C        2.53281000       2.62535100      22.47835300       0.01714515       0.05342856       0.26618993
O        3.19586700       2.27722600      23.66317200      -0.08832614      -0.14910343      -0.46133565
F        5.67462900       3.86613600      20.75485000       0.06402767      -0.45900931       0.06832039
F        4.74290700       4.58402600      22.60884400      -0.24403268      -0.77252811      -0.07985744
F        3.81122600       5.03198800      20.68644100       0.05799072       0.04820973       0.23527498
F        4.45796900       1.65101000      21.40525700      -0.15517997       0.12164610       0.62587186
F        1.64446400       1.68256900      22.10838800      -0.27411716      -0.11964115      -0.08928516
F        1.87539700       3.81003900      22.58225800      -0.11432977       0.05691703      -0.11328744
C        2.71243500       2.19143900      24.99445600      -0.02541690      -0.06099840      -0.00431945
C        1.53291000       1.15958500      25.25196800       0.06084208      -0.02618000      -0.00512010
F        3.81375800       1.68325100      25.65174100      -0.07784530       0.33949157       0.23711795
F        1.79692200       0.01823100      24.55565400      -0.17805199       0.00944521       0.28361841
F        0.35726800       1.69201300      24.80473700       0.29877352       0.25623976      -0.35943511
C        1.28570900       0.70878500      26.76857200      -0.08548199      -0.01437504      -0.09043393
F        2.39211800       0.19880600      27.36018400      -0.13793044       0.39070075      -0.22732205
F        0.78411900       1.68331400      27.54481500       0.05642492       0.06650005      -0.08925585
F        0.35919200      -0.29563500      26.71504200       0.11903077       0.20337170      -0.41893969
C        2.43447100       3.63041600      25.56609000       0.05201394      -0.05929993       0.09042211
F        2.33404300       3.57515500      26.91661800       0.31867952      -0.10683963      -0.04189150
F        1.30481600       4.16492300      25.06777600       0.07866908      -0.02204567       0.19558897
F        3.47812700       4.42371500      25.23772300       0.04987478      -0.25750063      -0.25771866
O        0.08815100       4.65646200      13.73909100      -0.13002790       0.35494133       0.02331425
H       -0.09753700       3.99964800      13.01178600       0.14462405       0.06979157       0.51896024
H        0.22103200       5.53089600      13.33711900      -0.03551054      -0.04310763      -0.03996060
O        1.12569400       7.07478700      30.77004800      -0.19093631      -0.06381993       0.12198137
H        0.76327500       7.97972000      30.68947900      -0.02078326      -0.00781770      -0.03847502
H        1.97946200       7.04988100      30.21391100       0.11459768      -0.03880926      -0.06728372
O       10.25776400       5.02471500      27.05247200       0.15725639      -0.03186163       0.11162959
H       10.26811300       5.06194200      28.03413700      -0.06205409       0.02026132      -0.16334065
H       11.02152400       5.55927900      26.75144000      -0.01449280      -0.10361906       0.01259841
O        9.04509700       4.86641000      29.55849600      -0.03345263      -0.10572686       0.19835908
H        8.68207100       4.02233600      29.19075500      -0.00857206      -0.09918751       0.04639916
H        9.40113600       4.63249200      30.44127400      -0.02444399      -0.02177982      -0.00128144
O        7.76974700       5.05146100      12.94003100       0.36583407       0.10650898       0.10732608
H        7.79672400       4.83090400      13.89891700      -0.11463419      -0.20002053      -0.26360391
H        8.41793000       4.43291100      12.54964500      -0.09733117      -0.03036319       0.08201974
O        7.34278500       8.18946200      22.67408400      -0.08554678      -0.13339450       0.47464316
H        7.54380000       8.84380500      21.95035400      -0.35455515      -0.28441545       0.16344710
H        7.35116100       7.27995700      22.33751100       0.29858686       0.05086619      -0.23902108
O       11.16985800       0.85792600      14.75445200       0.28739382       0.11674403      -0.06549680
H       11.97962500       1.32973000      15.03384600       0.13964588      -0.12546882       0.14181795
H        0.42465900      -0.03247100      14.40776300      -0.07784838      -0.11430251      -0.01182862
O        4.89041500       6.81844700      26.52652700      -0.20618398       1.67012858       0.44234393
H        4.43713200       6.88143500      25.61169200       0.78488175      -0.20274744       0.86146772
H        5.87874900       7.00884600      26.37455800      -2.05742673       0.54565395      -0.28795586
O        0.27683800       4.14373200      19.91007100       0.14919341      -0.23160653       0.03556607
H        1.09183100       4.38780300      19.39414900      -0.05076746       0.03585301      -0.10605904
H       -0.25350000       4.97695500      19.93178900       0.02206058      -0.00336815      -0.00290432
O        4.00617800       2.27021700      30.83333100      -0.14061519       0.08555758       0.08368016
H        4.17500900       3.25945800      30.57861100      -0.02701355      -0.00491955       0.04675037
H        4.72406100       1.79620000      30.33862100       0.08001479      -0.08859045      -0.08374341
O        2.35346300       5.00607500      18.29922900      -0.15498817      -0.05845712       0.01430870
H        2.66451100       5.86524400      18.67175200      -0.06961159      -0.10239933       0.00014141
H        1.69070000       5.22288700      17.61113100      -0.07337415       0.00966786      -0.05851831
O        7.70582100       7.27875100      29.31389100      -0.16497485      -0.04368562       0.57809922
H        8.36410300       8.03617400      29.27133700       0.01480081       0.01376055      -0.01691220
H        8.16802400       6.49152300      29.69120400      -0.04760912      -0.07148490       0.10406798
O        3.04276500       7.37875100      19.52756700      -0.08788134       0.20613307      -0.16715771
H        3.37481900       7.83901900      18.72706500      -0.04135671       0.13069124      -0.07265835
H        2.09699600       7.66498800      19.54669600       0.00561118       0.15388825      -0.09435384
O        7.14145800       0.67740700      21.17932200      -0.14081059       0.22170933      -0.18663742
H        7.64795300       0.61200400      20.33594800       0.36225406      -0.00990183       0.08406582
H        7.50773200       1.43437600      21.69400800       0.08265223      -0.13162712      -0.04264689
O        5.66362000       1.26406500      28.89478500       0.08299676       0.08058969       0.03865294
H        5.55513300       0.27496100      29.06956300       0.02098843       0.07146742      -0.04255485
H        5.04573500       1.49009100      28.17800800      -0.01327306      -0.01982269      -0.03498140
O        8.96613000       0.76649800      25.83462700      -0.20695685       0.15647375      -0.06919199
H        8.03267900       0.74252200      25.57090400      -0.12133397       0.01505124      -0.07840477
H        9.28544400      -0.12076800      25.49200900      -0.16430996      -0.17907529       0.07426478
O        8.73704500       2.45644800      22.80994500       0.13271624       0.10285390      -0.12377086
H        9.11726100       2.13586800      23.64897000      -0.05096904      -0.09398206      -0.09190820
H        9.41656800       2.28242100      22.11205200      -0.08400617      -0.03019195       0.02436069
O        3.28694300       7.02668200      24.20940900      -0.37467558       0.18844799      -0.11704331
H        2.96700900       6.22752100      23.75629500       0.12975484      -0.01231918       0.09594124
H        3.43052100       7.65848400      23.43875100       0.21471798      -0.13379096       0.10590272
O        8.22663900       2.41470200      28.38180000      -0.13093601       0.11441256       0.11145784
H        7.31209200       2.04959800      28.47110000       0.01440281      -0.07706060       0.02352251
H        8.55782900       2.13729300      27.50447400       0.00286267       0.02848320      -0.06310413
O        0.54115300       8.56067300      19.00119800      -0.11424338      -0.02076937      -0.11854843
H        0.04387100       8.39200100      18.18019600       0.09335008      -0.04596927      -0.10876384
H        0.36734900       9.48997300      19.22624100      -0.07896270       0.03597539       0.02786356
O        7.81574200       6.28307800      26.91121800       1.22585117       0.63581946       0.60729667
H        8.53083500       5.61996000      26.75039400       0.27061017       0.19877611       0.53630696
H        7.76768200       6.56407900      27.83372600       0.84251457       0.44744346       1.08775258
O        7.29014000       1.14101700      14.08041200      -0.39906507       0.07340500       0.07737273
H        6.61096500       1.00921200      13.37746400       0.27134551       0.25242064       0.54205286
H        6.78723800       1.48753400      14.85328300      -0.27355151      -0.18064726      -0.72188046
O        6.03903400       1.11827400      18.54614000      -0.42755443       0.79618021      -0.06899659
H        5.77467100       0.56282700      17.73086700       0.21747626       0.28067296       1.41974476
H        6.06455300       0.79651000      19.47839100      -0.17312524      -0.58018541      -0.97935281
O        9.58348100       5.64631500      22.66231100      -0.03353284      -0.19288674       0.15672469
H        9.35478100       4.73852100      22.92987200      -0.06297146      -0.00242969      -0.09113224
H        9.68979700       5.60708700      21.69030800      -0.15933333       0.14349225       0.08613505
O        1.62570300       6.74857700      26.67754500       0.03945821       0.11307867       0.15842676
H        1.01615600       7.50066500      26.77727000       0.04571679      -0.06045898      -0.02352508
H        2.06482000       6.93217900      25.81361500       0.07830861      -0.03186008      -0.03245658
O        5.32328200       8.34623200      29.67028900       0.06597246      -0.08674748       0.21763207
H        6.20650800       7.85789100      29.59124200      -0.07822685      -0.01292597       0.04098442
H        5.21221000       8.47532100      30.64756300       0.02498495      -0.03321351      -0.04865350
O        9.22337800       7.18094300      17.51061900       0.25575331       0.12505590       0.03153304
H        9.72072900       6.51794700      16.96449900       0.06138406      -0.02354719      -0.07406372
H        8.68851300       7.75541700      16.93641900       0.17784579      -0.12822864      -0.15781227
O        9.32641100       7.78973700      25.05204100      -0.26314472       0.05825246       0.13067993
H        8.85027300       7.75758400      24.19217900      -0.03428361      -0.10971669      -0.05614056
H        8.74198600       7.25091100      25.64944100       0.17518110       0.27909790      -0.09704270
O        4.64948000       4.63575600      30.14429600       0.12701045      -0.07122059      -0.04558566
H        5.11952500       4.51030200      29.26717400       0.02352971       0.01130411       0.13514696
H        3.97678900       5.33049800      29.95266000      -0.02245910       0.07218167      -0.05634676
O        8.57482400      -0.04072700      18.96037100       0.31567904       0.25202058      -0.13807699
H        9.01287300       8.70043100      18.97224200      -0.08308520       0.14289832      -0.03988810
H        8.58101300       0.25360000      18.01339700       0.03303971      -0.08454868      -0.02694002
O        9.05976300       3.22432200      16.25172600       0.64429433      -0.55490581       0.10618657
H        9.27613400       3.44221800      15.32195400      -0.32632598      -0.27813682       0.29064112
H        8.38138200       2.50250100      16.23308600       1.07747280       0.34881542      -0.04949734
O        3.15002100       6.79878000      29.16704100      -0.03732831      -0.02673485       0.24128262
H        2.79156400       6.76194100      28.24574300       0.06558988       0.06480775      -0.07824845
H        3.93494000       7.41753400      29.18501200      -0.05410373      -0.05572249      -0.07798979
O        5.59095800       4.27643200      27.70163800       0.18881926      -0.09374808       0.35610861
H        5.15322000       5.03773000      27.24343400      -0.97673645      -0.24759108       0.24824928
H        6.53212800       4.40850500      27.45574900       0.02206418      -0.63086392       0.37276216
O       10.23287300       1.75735100      20.41482000       0.13333639       0.05660541      -0.05549418
H       10.66986100       2.61453500      20.12540900      -0.04665010       0.09401702       0.00944212
H        9.67644100       1.43679300      19.67195800      -0.01938355      -0.03339606       0.18296589
O       10.89096400       8.82643300      21.80611200      -0.11141054       0.08598849      -0.20651976
H       10.33433200       8.67736200      22.58569300      -0.05216923      -0.05258472       0.01710349
H       10.66677500       9.72531000      21.48119100      -0.05354580      -0.06952675       0.03643922
O        9.32994900      -0.31589500      28.78566700      -0.14572757       0.06688005       0.06720453
H        9.19895100      -0.31581600      27.81564800       0.09053832       0.12262877      -0.04953745
H        9.05455100       0.59333700      29.03435700       0.03473663      -0.01871712       0.03779471
O        8.98423700       0.63407300      16.15948800      -0.48384617      -0.78947477       0.09995216
H        8.29440200       0.45400800      15.46467200       0.95435397       0.02700018       0.05982289
H        9.89457900       0.76511700      15.69943900      -0.94911663      -0.20181053       0.14560158
O        9.87650600       6.52010700      20.04742500      -0.05789559       0.03113041       0.05925725
H       10.33390900       7.33079700      20.36829600       0.06802522      -0.12853254       0.00494886
H        9.55024900       6.72277100      19.13794100       0.02182455      -0.11290692       0.15252659
O       10.97554400       5.14023700      16.66190800      -0.14281142      -0.06517233      -0.10796886
H        0.06415100       4.93183400      15.71655400      -0.03418025       0.11909711      -0.08102678
H       10.40237700       4.38685700      16.94041500       0.05554972       0.08100672      -0.06473884
O        3.98308200       8.39483200      21.97011900       0.06730583       0.21526614      -0.00916855
H        3.75685700       8.06757600      21.05980700      -0.00351727      -0.11206154       0.20531443
H        4.93639500       8.60092400      21.97100700       0.06346666      -0.14341769       0.06327537
296
Lattice="30.0 0.0 0.0 0.0 30.0 0.0 0.0 0.0 30.0" Properties=species:S:1:pos:R:3:REF_forces:R:3 system_type=FORCED_Nafion_four_dry_neb_img00 REF_energy=-142247.4347255716 al_round=1 source=cp2k_sp REF_stress="-1.3617366503611113e-05 -0.0006728052654711229 -0.0007294815254246181 4.6889834933081424e-05 -2.2786081312742453e-05 -4.5109873674390386e-05" _cp2k_dir=cp2k_sp_round1 orig_idx=577 dE_per_atom_meV=-5.976368158617579 F_rmse_meV_A=133.28816806733005 pbc="T T T"
O       29.06490000      29.69790000       0.39150000       1.55155237       0.50091984      -1.35826505
O        1.12470000       0.62760000       1.65600000      -0.87026655      -0.14499686      -4.06867747
O        1.06380000      28.30050000       1.20900000      -0.92986575       1.86845012      -3.91902897
S        0.77760000      29.64570000       0.52530000      -0.04707639      -2.16167983       9.58151027
H       28.84200000       0.66090000       0.32130000       0.01939846      -0.33216187       0.07288255
C        1.78782400      29.90657000      28.95689500      -0.63367208      -0.13247096       0.13342587
C        3.28837200       0.10883500      29.36144300      -0.01325918       0.50708226       0.21126911
O        3.77610000      28.98330000       0.05430000       0.38943988       0.37223252      -0.83233660
C        5.17893400      28.75932100      29.94764300       0.63665918      -0.07838986       0.40657577
C        5.45610000      27.40380000       0.66600000      -0.43109484      -1.05020522       0.62993935
C        6.01920000      29.89740000       0.60270000       1.00154657       0.59565523       0.95843688
F        1.32113400       1.02706400      28.35317400       0.38603420       0.20644109       0.19734401
F        1.62799800      28.84557700      28.14851600       0.14084093      -0.19288366      -0.09332437
F        3.36900000       1.24560000       0.12480000      -0.09447108      -0.40866814      -0.20007966
F        3.92540100       0.35495200      28.17776600      -0.09081600       0.26045740      -0.01985046
F        5.61786100      28.61382700      28.65888400       0.18303068      -0.54087787      -0.00679388
F        5.90173900       1.05398000      29.91680700       0.34858454      -0.16376694       0.12272802
F        5.61870000       0.10740000       1.90980000       0.48888142      -0.23269462      -1.01682407
F        7.36650000      29.58240000       0.59430000      -1.05808411      -0.07503559       0.11495249
F        4.68510000      26.43960000       0.02640000       0.22026128       1.13278340       0.37653140
F        5.06010000      27.50490000       1.99260000      -0.21407212      -0.39642866      -1.01058400
O        6.83550000      27.05700000       0.58770000      -1.21041067      -0.66432734       0.54195876
C        7.15080000      25.79160000       1.17630000      -0.44407531       0.10006580       1.27689529
C        9.08386500      25.20624900      29.42911100      -0.11392559       0.11157612      -0.29532310
C        7.72650000      24.84360000       0.10170000      -0.15702448      -0.97443017       0.23008290
F        8.04960000      25.98510000       2.20380000      -0.50970016       0.24435561      -0.55889256
C       11.67937600      25.32049200      29.46128200      -0.15348716       0.07040195      -0.26372116
C       10.38750000      24.99930000       0.27930000       0.21549651      -0.49237452       0.82296493
C       14.25131200      25.25931600      29.21745800      -0.01965917       0.05659924      -0.30026168
C       13.03440000      24.89340000       0.13230000       0.09404119      -0.25668250       0.87817012
C       16.71283900      24.93119600      28.51201400      -0.07983482       0.21179618      -0.29931140
C       15.64639900      24.67006400      29.63770800      -0.09163669      -0.23427380       0.20312848
C       24.28560000      24.63870000       0.80550000      -0.22619127       0.37038492       0.70158726
C       23.09789000      24.22703100      29.89321900       0.09041593      -0.12278253      -0.19383754
C       26.85780000      24.59400000       1.08150000       1.37687058       0.30460479       0.98169920
C       25.65870000      24.20640000       0.20190000       0.27111256      -0.47149356      -0.39731723
C       21.69570000      24.70260000       0.39240000      -0.33741052       0.49404317       0.76843903
C       20.56191400      24.22505600      29.43145100       0.04927777      -0.11256239      -0.22193764
C       19.12247100      24.78376000      29.70891600       0.08053261       0.24069950       0.16707955
C       18.11449500      24.24536600      28.63268600       0.12069428      -0.26376795      -0.25405844
F        6.78239800      24.77338700      29.12260500       0.15681365      -0.04941044      -0.10570731
F        7.85100000      23.57190000       0.63630000      -0.12625506       0.49309237       0.24665623
F        6.04260000      25.15500000       1.73160000       1.10670213       0.49044568      -0.54783271
F        9.02276900      26.49623200      28.97595500       0.38804789       0.12119718      -0.16008101
F        9.14957800      24.36525900      28.35171400      -0.01240095       0.03930291       0.23617744
F       10.39830000      25.78050000       1.41870000      -0.32483268      -0.37458199      -0.87325777
F       11.71165500      26.67270300      29.23524100      -0.17109459      -0.24438080       0.34547196
F       11.56959600      24.66478500      28.26470100      -0.21052194       0.12756529       0.23732621
F       10.41690000      23.66700000       0.65610000       0.26696949       0.67723685       0.00608066
F       13.19640000      25.56450000       1.33170000      -0.56800198      -0.59939773      -0.41960870
F       14.36336000      26.62476300      29.17895100       0.16789151      -0.28994795       0.14693444
F       13.96074700      24.79829800      27.96018100      -0.00975065       0.25398079       0.19088437
F       12.99960000      23.53260000       0.38730000       0.09708023       0.91241156      -0.37444058
F       16.03230000      25.22700000       0.83580000      -0.11569965      -0.09408798      -0.55618931
F       15.52511200      23.31633500      29.79899300       0.23257378       0.23765942      -0.15434745
F       16.88766100      26.28061900      28.36446700      -0.00664116       0.09305851       0.19705707
F       16.21929400      24.42761900      27.32923000       0.26964961       0.44430929       0.29426946
F       18.67467800      24.42492300      27.38667500      -0.35506269       0.27129203       0.47070269
F       17.93082800      22.90314300      28.82512400      -0.13520044      -0.05093459      -0.26415156
F       19.17274200      26.14982800      29.63975600       0.36737416      -0.19853289      -0.23549970
F       18.70770000      24.41820000       0.96660000       0.20926107       0.20282560      -0.41387051
F       20.92956900      24.62152800      28.17128100       0.03832795      -0.20037277       0.18581775
F       20.49669500      22.85664300      29.48384100       0.35781120       0.26393713      -0.07896681
F       21.70080000      26.08620000       0.45870000       0.00379392      -0.93467063      -0.40368688
F       21.44250000      24.19890000       1.65720000       0.16600946       0.37465141      -0.67683576
F       23.33855200      24.77691900      28.65944200      -0.13676316      -0.20352340       0.26762101
F       23.08115000      22.85985300      29.79119100       0.16946245       0.29992795      -0.13884935
F       24.28050000      26.01600000       0.95640000       0.44234599      -0.94945448       0.08891081
F       24.12450000      24.05520000       2.05110000       0.40773894       0.46175731      -0.60964409
F       25.86627600      24.81400400      28.99134700      -0.41061292      -0.13048812       0.03147853
F       25.68210000      22.83210000       0.02760000       0.23825335       0.64224722      -0.06515227
F       26.91030000      25.96500000       1.26000000      -0.23575321      -1.24729983      -0.09058408
F       26.77680000      23.97630000       2.31630000       0.17641574       0.72052395      -1.06018110
F       28.02750000      24.18780000       0.46260000      -1.06221844       0.44165951       0.46632513
O       29.96100000       6.00030000       1.81320000      -0.80465611      -0.14148010       0.41237515
O       29.16933100       7.42400200       3.69054400       0.33876138       0.26357512       0.55842719
O       27.52440000       6.82260000       1.86420000       0.53053175       0.01414570      -0.73551297
S       28.65486200       6.51809300       2.70172100      -0.22370450      -0.21334399       0.09593661
H        0.72630000       5.98050000       2.44230000      -0.34888536       0.09100215      -0.27209935
C       28.07369800       4.95677600       3.58879400       0.16506484       0.02404650      -0.21812624
C       26.98687500       5.18736500       4.72659000       0.53386750      -0.03429903       0.44615328
O       25.85068400       5.81442800       4.23460400      -0.10947347      -0.00739912      -0.79743182
C       24.58837800       5.76569900       4.85364300      -0.67545713       0.13810990       0.55849661
C       23.54549700       6.43805400       3.84354400       0.74575161       0.01343864      -0.56792742
C       24.58654800       6.48563400       6.25050300       0.02548478      -0.03079925       0.41231242
F       29.17811500       4.40002300       4.17276100      -0.13724241      -0.22780233      -0.09598803
F       27.57706500       4.09471300       2.66359900      -0.31305189      -0.25301045       0.12600720
F       27.59758300       5.94056900       5.69306600       0.02237477      -0.17798052      -0.00111483
F       26.72172400       3.96314200       5.26756000       0.30428391       0.09849434      -0.18635100
F       24.15437200       4.48165200       5.07550700      -0.04794285      -0.02152476      -0.09431527
F       25.41273700       5.82010700       7.09760700      -0.12084649       0.15049131       0.17929538
F       25.00810700       7.76677200       6.14005600       0.23976979       0.00159048       0.08707299
F       23.35220800       6.47549400       6.81239600      -0.10001232      -0.11244669      -0.13071387
F       23.52180000       5.69940000       2.69820000       0.61059077      -0.13349991       0.01938920
F       23.99884900       7.68966500       3.52766100      -0.00368645       0.02395240       0.36705689
O       22.27180600       6.47771700       4.39502800       0.15467141      -0.18937822       0.13318058
C       21.22842200       6.93798400       3.58724900      -0.60019528       0.46113253      -0.59078042
C       19.33703900       5.20047600       4.44301500       0.17580279      -0.41498328       0.04728362
C       20.15848600       5.82350000       3.26076800      -0.01977076      -0.21725978      -0.35967936
F       20.63349500       7.98975300       4.20640100       0.18109875       0.02574651       0.35714117
C       17.30369000       5.26167800       6.11399800       0.13954663      -0.33603755       0.01942366
C       18.14492200       6.03926300       5.03835100      -0.23438795       0.35497527      -0.06513222
C       15.24446900       5.14125400       7.72332500       0.07381792      -0.36865405       0.07286404
C       15.98323900       5.97560100       6.60417500      -0.12094522       0.21982985      -0.10231089
C       13.03823400       4.53832100       9.01619000       0.27577757      -0.25529051       0.09851645
C       13.76464700       5.57215500       8.07561000      -0.13452218       0.20362779      -0.18041432
C        6.80491900       7.41638200      13.21839500       0.11740121       0.13591881       0.02409689
C        7.50344600       6.36785100      12.27648800      -0.13892340      -0.21548829      -0.00634343
C        4.69447100       7.92802000      14.74469100      -0.10438731       0.28422519       0.18144636
C        5.44406900       6.90813800      13.82339100      -0.23830477      -0.23116945       0.03547300
C        8.92411100       6.78023200      11.71794700       0.17270667       0.10881372       0.04429651
C        9.51682900       5.68622100      10.74448300      -0.09366478      -0.28777948      -0.06460823
C       11.00792800       5.88357800      10.26168900       0.11069834       0.22008696       0.20346581
C       11.49624800       4.71241700       9.32391500      -0.31628017      -0.23642478      -0.07900846
F       20.87371300       4.79873700       2.68636300       0.11632906       0.30710184      -0.04323053
F       19.26270000       6.27750000       2.31750000       0.55331173       0.43835461       0.10860906
F       21.66090000       7.38300000       2.37660000      -0.18262599       0.30389002      -0.12962063
F       20.21672600       4.90166800       5.45007500      -0.02664280      -0.22989418       0.14795003
F       18.83403400       4.02903100       3.93551500      -0.22584212       0.02482400      -0.05088573
F       18.63489800       7.17381600       5.62715900       0.19347656      -0.02090924      -0.06485711
F       18.10816500       5.04095000       7.20100800      -0.21403253      -0.12744548      -0.25039616
F       16.94371700       4.06457700       5.55573400       0.45542159       0.24783071       0.07319880
F       17.30964100       6.38863900       4.01017400       0.33281750      -0.23952347       0.00993731
F       16.27980900       7.21353200       7.10471800       0.27794604      -0.23016774       0.03803896
F       15.99013000       5.21076000       8.86903200      -0.00313469      -0.22925449       0.04935799
F       15.20415000       3.84060600       7.29234000      -0.18786795       0.21660209       0.02277638
F       15.15921200       6.11457700       5.52116400       0.14526168       0.05653702       0.17179033
F       13.80747700       6.79853900       8.68448400      -0.33699503      -0.05913332      -0.21230166
F       13.03719800       5.66920600       6.92028600       0.06941413       0.07682148       0.08506855
F       13.71667300       4.47381200      10.20272800      -0.20847792      -0.21348540      -0.00071991
F       13.10507500       3.30792600       8.40439800      -0.06152856       0.30626109       0.14401264
F       11.15092900       3.52395900       9.92766700       0.25768061       0.27611645      -0.17843920
F       10.82907400       4.79904600       8.13270900      -0.19909236       0.28875908       0.31974704
F       11.81526300       5.93577900      11.36552200      -0.04822413      -0.05292925      -0.22525848
F       11.09880700       7.06899400       9.58235200       0.20022930      -0.16893537      -0.12531403
F        9.45484900       4.49032800      11.40985500       0.23185644       0.25559493      -0.08225628
F        8.72872900       5.63260800       9.62485500       0.38600078      -0.14654723       0.20174985
F        9.77323500       6.93327300      12.78043200      -0.05173934       0.21001338      -0.08141913
F        8.82440500       7.96599000      11.04617800      -0.17110436       0.00411377      -0.09326780
F        7.64718200       5.21334800      13.00022800      -0.23096376       0.07530453      -0.11771282
F        6.67573500       6.14053400      11.20780500      -0.04946957       0.15657248      -0.09824237
F        7.64795100       7.70261000      14.26091000      -0.29031871       0.08741751      -0.18032999
F        6.56057000       8.55414200      12.50012700       0.22143113      -0.03704857       0.20016451
F        5.67249600       5.79409200      14.58785700       0.15821542      -0.04008093      -0.09110293
F        4.58163700       6.59429200      12.80391200       0.40416356      -0.12210324       0.36854401
F        5.47249500       8.30482800      15.79090700       0.18018241      -0.27900431      -0.36678898
F        4.32772000       9.03043400      14.04908300      -0.14049177      -0.03029840       0.19867481
F        3.57267000       7.33644600      15.23483600       0.02573109       0.00685919       0.18673718
O       27.86842300      17.13938400      13.63542200      -0.37931642      -0.00512627      -0.32473601
O       29.52429200      18.30072100      15.08023000       0.19821716       0.48205617       0.35227098
O       29.58081200      15.79855200      14.69832300       0.09318758      -0.68208287       0.12698577
S       29.34928900      17.13634700      14.25867300       0.09831848       0.03613840      -0.06522889
H       27.59774000      18.07078500      13.48795800      -0.05120147      -0.03385320       0.02869094
C        0.32404200      17.41895800      12.68222900      -0.07106633      -0.11031319      -0.12696571
C        1.85066500      17.75236800      12.85274400      -0.26997665       0.56973285      -0.17761902
O        2.44443800      16.75252600      13.59855200      -0.41071011      -0.63461413       0.03773351
C        3.77662400      16.36232100      13.47994900       1.02646056      -0.10903072       0.19382520
C        3.87888000      14.95581700      14.21865900      -1.03828867       0.21175093       0.05633236
C        4.73510900      17.44772200      14.08829200       0.23610185       0.21577625      -0.06408886
F       29.73845500      18.48913200      12.05271200       0.07954017      -0.03017087       0.01879631
F        0.18885000      16.31613400      11.89882200       0.20042779       0.05369749       0.05904179
F        1.94813500      18.96200800      13.48081300      -0.45832077      -0.04089648       0.06528751
F        2.37974200      17.89823100      11.60518600      -0.14033648       0.12531661       0.21239268
F        4.18665100      16.16046800      12.18403100      -0.11414053      -0.20113382       0.00025968
F        4.60753100      18.59763800      13.37475900      -0.23228685      -0.06079477       0.15630560
F        4.42446100      17.70037000      15.38126600       0.27239914       0.00505016       0.05521187
F        6.03298300      17.06721700      14.01152900      -0.13604531      -0.21572997      -0.02325563
F        3.03942600      14.09073500      13.56828500       0.14226943      -0.13294198      -0.21470359
F        3.41803600      15.08809200      15.49911100      -0.10204709       0.39699327      -0.26373915
O        5.18454200      14.51727500      14.17697400       0.10349874       0.22910125      -0.32778997
C        5.54189300      13.32492600      14.79002900       0.20914023      -0.76635849       0.52139868
C        7.50644500      12.67658000      12.99384500      -0.07987544       0.15904588      -0.34784457
C        6.17060800      12.31166600      13.75792300      -0.25474852      -0.21070243      -0.07997777
F        6.43345100      13.58663100      15.78350600       0.21241222      -0.06182835      -0.15091143
C       10.15464900      12.77463500      12.85709000      -0.10698464       0.10413226      -0.28480523
C        8.88178100      12.48379500      13.74853600       0.06498207      -0.08365908       0.33313221
C       12.77774300      12.81049700      12.57260900      -0.04152023       0.08329552      -0.35457366
C       11.55672800      12.41610300      13.50376700       0.03756536      -0.11543946       0.23690506
C       15.30769300      12.48806000      11.86995300      -0.18718404       0.23404857      -0.25075971
C       14.20311700      12.23649000      12.97025500       0.02075755      -0.23450468       0.23159522
C       22.99257100      12.19454900      14.34251300      -0.07851173       0.14532082       0.25656423
C       21.81150500      11.78466700      13.38516600       0.08369147      -0.13265248      -0.23425991
C       25.62274300      12.19268600      14.72530400       0.20977375       0.15736798       0.32333116
C       24.41644400      11.79651000      13.80540200       0.21907343      -0.16793110      -0.23016929
C       20.36257500      12.23538800      13.83520100      -0.13395551       0.15960124       0.18092186
C       19.23650300      11.77390300      12.82586500       0.06056748      -0.15010564      -0.27416704
C       17.76920900      12.31280600      13.08301100       0.01740277       0.25462614       0.20533500
C       16.73381400      11.80148000      12.00463700       0.19467109      -0.28085088      -0.22498388
F        5.20184000      12.13468100      12.79662300       0.03576610       0.37620693       0.33906528
F        6.35383200      11.12082500      14.39993000       0.18244138       0.01489234      -0.11002574
F        4.48677500      12.67280500      15.36717900       0.19104995       0.08139805      -0.28766224
F        7.40657100      13.97736200      12.57760000       0.08735272       0.15246643       0.30423815
F        7.51597600      11.86228600      11.89110700      -0.09703087       0.02224621       0.16880733
F        8.91719900      13.32291300      14.83037600      -0.31035891       0.01266526      -0.27491780
F       10.15340900      14.10749800      12.54038300      -0.07100050      -0.18065601      -0.31399034
F       10.02681700      12.03012700      11.71615600      -0.16172189       0.00264567       0.03374933
F        8.94685500      11.18773500      14.17959100       0.32616811       0.05474548      -0.16494914
F       11.69564000      13.06829000      14.69808500       0.07069197      -0.20208204      -0.16039160
F       12.87073400      14.17584100      12.54207800       0.19684676      -0.21377799      -0.17791624
F       12.48025200      12.35153600      11.31636700      -0.01890378       0.31852062       0.18031868
F       11.57263700      11.06643000      13.72220200      -0.22245340       0.04596361      -0.17296429
F       14.59365300      12.82251200      14.14533300      -0.02514488      -0.34288337      -0.02708760
F       14.09872600      10.88444400      13.15545500      -0.24540667       0.17438200       0.17337824
F       15.48768700      13.83675700      11.72939900      -0.19477548       0.01154991      -0.31413535
F       14.82132700      11.98388400      10.68600300       0.08647289       0.36769709      -0.01134834
F       17.30565300      11.99695700      10.76708500       0.00166248      -0.00667510       0.09817655
F       16.54512600      10.45877800      12.18362300      -0.20666529       0.10325654      -0.02057448
F       17.80515800      13.68071400      13.04883600      -0.40431526      -0.03145848      -0.07806384
F       17.35655500      11.90441100      14.32303900      -0.22287918       0.22490058      -0.19690589
F       19.62206600      12.20329600      11.58405700       0.12615530       0.15880368      -0.00172315
F       19.18210100      10.40497200      12.84570300       0.05064457       0.11230477      -0.22241175
F       20.34657400      13.60195900      13.91181100       0.26642801      -0.03667319       0.19672232
F       20.08927700      11.70806400      15.06735000      -0.27096910       0.00253511      -0.19270008
F       22.07615400      12.34788700      12.16452300      -0.08529224       0.18515492      -0.04254456
F       21.81437000      10.41872000      13.27282600      -0.00280405       0.24915380      -0.15757213
F       22.97643400      13.55629900      14.50573800      -0.42051784      -0.20619118       0.36536150
F       22.80545900      11.58667700      15.55685900       0.22274651      -0.00440739      -0.16558060
F       24.64161500      12.40731900      12.59903000       0.14245147      -0.14325159       0.12746965
F       24.47287500      10.43528800      13.64755400      -0.30886099       0.25970612      -0.26374173
F       25.68634200      13.53737300      14.89784000       0.30473437       0.00999491      -0.21378827
F       25.52408100      11.59983800      15.94242200       0.09605179       0.15224686      -0.17349394
F       26.77708700      11.78172700      14.13891800      -0.29015210      -0.07485716       0.19432553
O       28.30684200      23.30769600      15.37249200       0.21800694      -0.19971508      -0.09113430
O       27.66806900      24.88711100      17.18618900       0.21166557       0.32674147       0.43926478
O       26.12403500      24.34404000      15.25826800      -0.43966844       0.20440786      -0.38705184
S       27.11854000      23.98307300      16.21640400      -0.05543299       0.03369122       0.12322116
H       29.07103800      23.16319000      15.97111900       0.01929767       0.04011075      -0.06562793
C       26.52838900      22.47028700      17.15097900       0.02571103      -0.09961689      -0.07989807
C       25.53024100      22.73589900      18.33627200       0.57233943      -0.12947768       0.32706234
O       24.45438600      23.45822300      17.85617800      -0.05315859       0.04254045      -0.73763567
C       23.16173100      23.38937200      18.36838900      -0.89216824       0.27952161       0.52592382
C       22.22699200      24.04885700      17.26127100       0.97698945       0.00875769      -0.44279748
C       23.06766500      24.11264300      19.75926600      -0.02473556      -0.03329116       0.32478383
F       27.64963900      21.88108100      17.68008000      -0.19961532      -0.14464462       0.20808351
F       25.95936400      21.61456900      16.26052600      -0.09513185       0.02760234       0.13717196
F       26.19949300      23.43261300      19.30178900       0.06984711      -0.08289906      -0.02395446
F       25.19163600      21.52759300      18.86733200      -0.10982057       0.16851371       0.15060906
F       22.70433800      22.10826300      18.56261000       0.05450431      -0.01506615      -0.06974015
F       23.87372700      23.46914200      20.64457500      -0.24943559       0.18129673       0.15913793
F       23.46661000      25.40261700      19.66456400       0.17935297      -0.07227783      -0.13174436
F       21.80875400      24.07451900      20.25777400      -0.02947873       0.03935794      -0.15048257
F       22.35675500      23.29933500      16.12211200       0.15461381       0.13829091       0.29973152
F       22.68097300      25.30669700      16.97672300      -0.28831119       0.01728913      -0.12104446
O       20.92807300      24.05851400      17.71873300       0.07863874      -0.03128467       0.12331937
C       19.91412900      24.57986300      16.92808200      -0.63555515       0.50012485      -0.52278296
C       17.99345000      22.85232400      17.80593200       0.13515570      -0.42306683       0.12669883
C       18.81986700      23.49220400      16.62171800      -0.01215001      -0.08144741      -0.47072532
F       19.34736700      25.63469700      17.57328900      -0.22995177      -0.11932542      -0.18480114
C       15.96924700      22.87020600      19.52043100       0.14204318      -0.34574295       0.02536496
C       16.78935100      23.66432100      18.42712400      -0.20026684       0.37835843      -0.11875412
C       13.89140400      22.69696000      21.13882800       0.09418312      -0.34763323       0.07989447
C       14.63469000      23.55467900      20.03289100      -0.12749484       0.23600158      -0.10950741
C       11.70184800      22.13415400      22.51158700       0.27557703      -0.25356170       0.10563584
C       12.41999900      23.14145400      21.52800300      -0.11856180       0.22208368      -0.22572539
C        4.94245500      24.84067500      26.03696900       0.10826093       0.27426577      -0.12291314
C        5.96970900      23.79831500      25.47145400      -0.14972409      -0.22624938      -0.15821130
C        2.89557100      24.86702500      27.73956900      -0.14461377       0.12995539       0.30353983
C        3.60126100      24.15141600      26.53233400      -0.33006128      -0.37779278       0.01356463
C        7.29831100      24.35861100      24.81664400       0.12606480       0.24334311      -0.14491201
C        8.02454700      23.23039300      23.97529600      -0.10290841      -0.32347051      -0.06850911
C        9.55399700      23.43863400      23.62982400       0.08951039       0.22414468       0.10030388
C       10.13896100      22.25584900      22.76223600      -0.28613089      -0.24021562      -0.09370129
F       19.50134700      22.46040500      16.01675100      -0.44845236      -0.01578812      -0.02460700
F       17.94448800      24.01223900      15.70419900      -0.12099767      -0.26617142       0.19468035
F       20.35142400      25.04323100      15.71772100       0.40335315      -0.33041403       0.02766764
F       18.87655900      22.54273100      18.80672500       0.10749629      -0.34218660       0.09033932
F       17.49062100      21.68482400      17.28808100      -0.06293495       0.35110216      -0.16326918
F       17.26926700      24.80798400      19.00651400      -0.26831983      -0.04179688       0.09263068
F       16.78976000      22.66762200      20.59848100       0.20192212      -0.06495995      -0.21308636
F       15.62801600      21.66401700      18.97035700       0.09306623       0.04223860      -0.04973799
F       15.93598200      23.99695300      17.40848400      -0.20954801       0.12149595       0.13224676
F       14.92299600      24.78551400      20.55455500      -0.10711782      -0.08955153      -0.11927554
F       14.64936200      22.71751700      22.27876300       0.09148191       0.19343388       0.02674102
F       13.82117000      21.41460500      20.66287400       0.39979989       0.05250039       0.15738803
F       13.80325400      23.70304200      18.95663400      -0.21887186       0.05591636       0.23863850
F       12.47875900      24.37670900      22.11663300      -0.14596617      -0.14167705       0.05497070
F       11.67560100      23.22439000      20.38242700       0.16362965       0.06085904       0.09901319
F       12.34124900      22.17046200      23.71947700       0.10054917      -0.17466842      -0.17797794
F       11.84029600      20.87176400      21.98124600       0.12945865       0.37899040       0.47924235
F        9.81990900      21.08666900      23.41611800       0.34606331       0.30114511      -0.22850013
F        9.51762500      22.25237100      21.54373000       0.03576302      -0.12015846       0.16617504
F       10.25563300      23.51417500      24.80047000      -0.04944540      -0.08210716      -0.06630516
F        9.69488200      24.61572800      22.94218200       0.21144445      -0.28352122       0.34226631
F        7.92788600      22.06614600      24.69428400      -0.14529048       0.21117655      -0.39277306
F        7.33948500      23.09659600      22.79684700      -0.08739849       0.28883004       0.34945151
F        8.11448800      24.79756300      25.81570000       0.04968400       0.12348187       0.06691296
F        7.02848400      25.41361700      23.98774000       0.25081782      -0.25879132       0.38223051
F        6.34458100      22.98139000      26.50153700       0.20427005      -0.02260154       0.05482312
F        5.29177400      23.06931500      24.51988900      -0.02124143      -0.03889514       0.15635908
F        5.53464400      25.51126100      27.06705500       0.12676722      -0.09026218      -0.07919255
F        4.61544300      25.75661100      25.07086700      -0.17961317      -0.13537271       0.08017780
F        3.82652800      22.86313500      26.94909800       0.21796734       0.24590958       0.00535767
F        2.72821100      24.10771600      25.47949500       0.27360756      -0.00940355       0.13862515
F        3.50638700      24.53457100      28.90204100      -0.31783671      -0.31084434      -0.37329850
F        2.92526700      26.21523200      27.58765600      -0.02424036       0.02552489      -0.17809313
F        1.59873600      24.47693200      27.82389500       0.22045154      -0.06261871      -0.07751208
296
Lattice="30.0 0.0 0.0 0.0 30.0 0.0 0.0 0.0 30.0" Properties=species:S:1:pos:R:3:REF_forces:R:3 system_type=FORCED_Nafion_four_dry_neb_img11 REF_energy=-142250.5183954242 al_round=1 source=cp2k_sp REF_stress="-0.0004526731325305298 -0.00031346480821789344 -0.00020951410422953405 2.8949088298962174e-05 6.140188655890735e-05 -9.18944257615481e-05" _cp2k_dir=cp2k_sp_round1 orig_idx=578 dE_per_atom_meV=-5.60377873596342 F_rmse_meV_A=134.75459719273763 pbc="T T T"
O       28.32483400       7.98380300      23.11298300      -0.51549182      -0.26801181       0.03322791
O        6.44839300      21.66091900      13.75171700       0.04060749       0.47010311       0.36695301
O        0.92272800       5.56574300      23.56122300       0.05545099       0.25245252      -0.23372101
S        6.33068500      20.48672200      12.93491800       0.14056736       0.07024409       0.00569242
H        4.58244900      21.34626800      12.07025900      -0.04906539      -0.02788619       0.04921606
C       27.62740500       8.77465500      22.21412800      -0.37863456       0.37834146      -0.27214923
C        1.20290700       4.24288400      23.85752600       0.25041261      -0.90505923       0.30609860
O        9.44703900      20.21372400      12.36936100      -0.40435485      -0.46010203      -0.02064390
C       29.59626900       7.46034400      22.89394300       1.01916017      -0.16550552       0.22802550
C        8.18677400       4.39001800      21.17465900      -0.05335194       0.09116515      -0.36722452
C       29.64910100       6.07991200      23.67910100      -0.93603537       0.23867450       0.04248954
F        2.19576500       4.19955100      24.78814000       0.12575009       0.31698516       0.03655389
F       28.19823500       8.86387100      20.98232800       0.17109613       0.20525170      -0.06188234
F       25.52245400       9.04638800      21.14948000       0.13340581       0.14024597      -0.18624816
F        1.88273400       2.17003700      22.90942500      -0.13484563       0.19120833      -0.19758775
F       19.14858300      10.34093900      21.47561900      -0.00921741       0.25811872      -0.08290317
F        4.47868700       2.75582100      23.01070100      -0.05626191       0.14747952       0.15227514
F       21.79222500      10.45632300      20.63698300      -0.41343085      -0.07592828       0.01693072
F        2.63284800       5.28373000      21.32900400       0.20793798      -0.15154392       0.06500572
F       20.21155100      12.76087800      21.22402900       0.17686620      -0.31370083      -0.16270251
F       14.59982200      12.35311500      23.25997900      -0.22996977       0.44223852      -0.07258328
O       12.13943600      17.91735100      12.90403100       0.18545986       0.27603006      -0.36073043
C       21.49396500      11.41945700      19.69888600      -0.04621713      -0.31650899      -0.16802829
C        1.66460600       3.47748700      22.56421800      -0.28070227      -0.26337971       0.05144315
C       20.08809600      12.03932900      20.06634000      -0.05789868       0.37211373      -0.04168530
F       12.42638400      11.88397400      21.75398100       0.30265846       0.13426559       0.14097565
C       30.68054400       8.49457600      23.36600100       0.17234003       0.25061316      -0.08149626
C        6.97486000       3.95755600      22.10755300       0.02676467      -0.15247620       0.24957700
C        4.31811100       3.98721400      22.42766100       0.14454743      -0.18700715       0.35473822
C       20.98735600       3.74887100      23.55771800       0.19182231       0.11107475       0.34421932
C       18.36931900       3.72373000      23.08014100      -0.09095844       0.13038836       0.25952460
C       19.81710700       3.34290900      22.59347700       0.19561674      -0.16425597      -0.20461406
C       10.71609300       4.00717300      20.43578700      -0.21595777       0.24343824      -0.17747555
C       29.97981700      15.56780500      13.09647600      -0.06766784       0.16544587       0.20138373
C       28.82422000      15.17854200      12.09456500       0.07148901      -0.10153750      -0.22375387
C       26.17840600       8.19519200      21.99579200      -0.03130987      -0.13224933       0.01295888
C       22.07762100       5.98137700      13.87718200      -0.11459562       0.15147604       0.28231178
C       27.35982400      15.60629500      12.52709600      -0.13269773       0.17601002       0.14150839
C       26.24437500      15.17610600      11.48704500       0.04824470      -0.15022597      -0.27339210
C        9.61186400       3.78424100      21.54335400       0.05735669      -0.24733654       0.21882763
F       27.52318900      10.03982000      22.70165300       0.13838501       0.00860240       0.05373606
F       30.48612700       9.66198800      22.69362600       0.01204048      -0.04223809       0.01464912
F       29.30052200       6.25757800      24.98587500       0.17227421      -0.02250075      -0.08079487
F       30.58741400       8.74201800      24.69470400       0.05654628      -0.10107264      -0.29589749
F        1.93045800       8.06113000      23.08558500      -0.05269888       0.19620501       0.33265449
F       29.87956600       7.16794800      21.58501900      -0.30111066       0.01589045      -0.04231676
F       30.14637100       3.55651600      24.38458700       0.09415432       0.14473306      -0.51533036
F       28.69994000       5.27297000      23.11241200       0.03518915      -0.02456689      -0.02649162
F       25.64029800      12.05085000      20.46438800      -0.21043453       0.33970446      -0.30837711
F        7.03713700       2.61048900      22.33907500       0.01627714       0.01267605       0.20525581
F        4.33347100       4.95186900      23.40087800      -0.01704384      -0.00382323      -0.08258693
F        0.59632600       3.51890000      21.69882600       0.12073953       0.07788643       0.16239912
F       10.02405300       4.36012300      22.71659900      -0.27969439       0.04287932      -0.00317068
F       20.85762500       3.14138900      24.76505900       0.06129048       0.02663817      -0.18706937
F        7.09249000       4.62179300      23.29795400       0.16261663      -0.16723947      -0.10284516
F        2.92882500       3.19735300      20.62505100       0.05909578       0.04900420       0.13537939
F       12.72936200       3.49686800      19.36082500      -0.03202978      -0.24767901       0.03794846
F        8.28589400       5.75441800      21.20690200       0.19965183      -0.01641752      -0.24507963
F       22.48497000      17.22875600      10.36441400       0.11234436      -0.05143132       0.03358684
F       16.76680200      10.13438500      20.15278600      -0.03983410       0.33078582      -0.10398056
F       24.30154500      15.34957100       9.43980700      -0.34225602      -0.26915287       0.16565105
F       11.95067300       1.97805200      20.78740700      -0.20298707       0.18855598       0.12342839
F       17.23896800       1.95138000      21.95127900       0.22530373       0.09194163      -0.23628131
F       12.75040100       3.43148600      22.91783300      -0.15155214      -0.16227725      -0.21620151
F       26.64240900      15.63786000      10.26116700       0.25293538      -0.18073057       0.16347692
F       15.05845900       3.74559600      20.21802300      -0.24077972      -0.00653729       0.12422594
F       17.51700800       3.89478100      20.87350600      -0.06250764      -0.07500731       0.13110416
F       14.59969100       1.93183200      21.44891400      -0.14090572       0.07393259       0.08988166
F       29.10993000      15.78020100      10.89778400       0.00068957      -0.22794425      -0.09438726
F       15.45174400       3.20475600      23.70729500       0.26699006      -0.12995436      -0.13341867
F       26.68833000       5.22101700      16.89767200      -0.25500563       0.18548094      -0.16792030
F       29.76019000      14.93492700      14.29177100       0.31535045       0.32492421      -0.07703797
F       28.90836700       7.13947800      14.85504200      -0.27024919      -0.23148312       0.16441435
F       29.16468400       5.44243500      17.98252600       0.17070686       0.05083431      -0.06770024
O        1.79039100       7.06694900      13.21585300      -0.43326434      -0.07203923      -0.32500289
O        2.86418500       8.08233500      15.21487000      -0.00486350       0.35482975       0.47087907
O        3.64079400       5.87863300      14.23793600       0.24506266      -0.66776953      -0.07048783
S        3.11567200       7.19961400      14.11232700       0.13623505       0.13159473      -0.09903376
H        1.18214500       7.80500300      13.43081100       0.04306650       0.01115088       0.00218801
C       17.22063400       3.31572400      22.07909100       0.06907372      -0.13444299      -0.22777867
C       26.09977700       6.03151300      14.71650900       0.08299984      -0.08629548      -0.20868772
O        6.26646100       7.52768900      13.95946000      -0.23413084      -0.49592727      -0.30570265
C       26.99705300       6.21571300      16.00598800      -0.12064697      -0.06080351       0.20736411
C       28.55000700       6.15268700      15.74714200       0.17448639      -0.13502458      -0.22521066
C       23.64946800       5.83656500      13.68535800       0.10752303      -0.07477129      -0.28215545
F       28.87150800       4.93199800      15.21712800       0.09926927       0.26144162       0.00642570
F       26.27476100       6.97827800      21.39799800       0.45128315      -0.16835688       0.19085917
F       24.05025200       6.74991500      12.74819600       0.40946672      -0.25783744      -0.03211925
F       29.28499000       7.59875300      17.53640100      -0.23278924      -0.02269873       0.05729858
F       21.30996900       4.32393600      12.32191100       0.22201529       0.07920644      -0.09041491
F       26.40513500       4.82027300      14.15360000      -0.09036503       0.13791758      -0.05167609
F       26.42445800       7.03492500      13.84287800       0.44760750      -0.08744528       0.23552438
F       23.89450500       4.56912100      13.22570200       0.08404320       0.16182370       0.05681624
F       26.71664300       7.43308200      16.56700700       0.21884255      -0.17058139       0.09102940
F        9.49319300       2.43253300      21.72416200      -0.25661668       0.29139960      -0.34220100
O        9.26727500       5.58958000      14.21232200      -0.00240141       0.29069203       0.01749122
C       24.53614900       6.07420200      14.97737900      -0.20052909      -0.01440435       0.18889331
C       29.44835200       6.35519900      17.02138300       0.21600251       0.04247360       0.30810303
C        2.90106700       4.00511700      21.73478400       0.00557055       0.09446748      -0.39003329
F       21.85888600       6.33258400      11.53546000      -0.31117961      -0.19373829       0.29638651
C       21.24176500       5.66651000      12.57131800       0.27924291      -0.15804264      -0.24847349
C       19.71192700       6.11034900      12.45990600      -0.24786722       0.26236413      -0.17469413
C       17.10797600       5.81477100      12.95688400      -0.05430582       0.20693217      -0.33149750
C       18.59658500       5.35086500      13.28813900       0.08148392      -0.30811177       0.15624698
C       14.50436400       5.25939900      12.93196300      -0.09397794       0.19729773      -0.29769983
C       15.92767400       4.93271000      13.55784500       0.05091145      -0.23113088       0.18926149
C        7.64565700       7.35298200      13.90137000       1.02770909      -0.07406166       0.34671277
C        7.90583200       5.80887100      14.19805500      -1.02916639       0.08169270      -0.05093664
C        5.55192800       4.24680700      21.47006600      -0.09050387       0.10344680      -0.34986803
C        4.18769600       8.14006400      12.90015700       0.00221475      -0.06033043      -0.16567933
C        9.78056300       4.32223800      14.44289400       0.26616730      -0.81937053       0.24193208
C       10.63921700       3.82580200      13.21784100      -0.17629644      -0.39407404      -0.15968712
C       11.91505100       4.64093800      12.75150300      -0.02979086       0.28131676      -0.35998069
C       13.27189500       4.46978900      13.54569100       0.09344624      -0.31027304       0.29844442
F       24.21775300       5.10615100      15.89068500       0.14454177       0.19631814      -0.03774328
F       13.20517600       5.20366400      21.63905300      -0.54626639      -0.29505982      -0.12641344
F       15.72726300       5.11662300      22.58513300      -0.46063476      -0.19523673       0.20589036
F       18.71953000       4.01729000      13.00530200       0.22755396       0.08473071       0.17916374
F       19.41590900       5.91756700      11.13074900      -0.02231152       0.24760034      -0.00271457
F       19.63047800       7.44677300      12.73886400      -0.05094693      -0.06473061      -0.01662990
F       18.81526100       5.55005200      14.62562300       0.03026806       0.09998044      -0.21346020
F       16.18746300       3.61320700      13.30869100       0.03842154       0.14752065       0.21221939
F       16.96300500       5.80804800      11.59430500      -0.02505849      -0.07382563       0.19964463
F       16.95531900       7.09513800      13.41492100       0.28457538       0.10894691      -0.23710509
F       15.88517800       5.13781600      14.90985200      -0.05689183      -0.17826231      -0.14212391
F       13.58322500       3.13547300      13.55553100      -0.26486375       0.03933377       0.06140978
F       14.56698300       4.95200900      11.59940100       0.30051365       0.18422367       0.21854121
F       14.26105600       6.59885500      13.08106500       0.09850771      -0.11842194       0.04813825
F       12.13685000       4.23786000      11.45838200       0.19070645      -0.23080538       0.36647633
F       13.08571700       4.89921200      14.83203700       0.33572851      -0.18726426      -0.28051149
F       11.00891600       2.52826000      13.45950900       0.17066521       0.20947396       0.26184888
F       10.54848500       4.35309100      15.56375100      -0.18119799       0.39543981      -0.03341303
F        9.76868100       3.82566100      12.15143200       0.38621469       0.37066157       0.11112463
F       11.57508000       5.96799400      12.74424200      -0.28275041       0.06367852      -0.06562896
F        9.71982700       8.16613900      14.85176400      -0.14922684      -0.24937389       0.00463261
F       10.22500700       3.47234200      19.26841900       0.14123739       0.34487032      -0.05084254
F        8.81443500       3.37557000      14.64880100       0.11306736       0.30715069       0.15005782
F       10.89831900       5.35157100      20.26100600      -0.19660713      -0.23741003       0.08211179
F        8.19253200       7.61592100      12.66874400       0.11632649       0.15019666      -0.04320328
F        7.28757200       5.09354600      13.20855400      -0.04399518       0.27642549       0.00575053
F        7.31538700       5.46319700      15.38032500       0.33221741       0.32294601       0.00175555
F        7.87706100       4.00191600      19.89742800      -0.30253453       0.08062980       0.24285768
F        6.22860000       9.23534600      12.41216400      -0.07442573       0.13934969       0.10731888
F        5.42723500       3.43054100      20.37900600      -0.28348369      -0.09415740       0.06257089
F        4.37841600       7.35486700      11.80399800      -0.08974591      -0.15382603      -0.11623907
F        5.50017100       5.55537800      21.06662100      -0.27032169      -0.15455468      -0.21985968
F        5.36665300       9.55356900      14.40896300      -0.08606203      -0.08317879       0.03807855
F        0.75061000       6.20727000      16.66505700      -0.41253405       0.37391813      -0.03085787
O       23.66674300       7.78217300      22.76906800      -0.34367784      -0.15940635      -0.44755659
O       25.05783300       9.32857100      24.14158400      -0.13680224       0.65138646       0.25414482
O       25.38331800       6.82651500      24.18246000       0.28469725      -0.64128820       0.20219003
S       25.06881800       8.04336400      23.50486200       0.29430906       0.06785810      -0.00002417
H       23.33321900       8.61001000      22.35828900       0.05960897      -0.01163990       0.11689933
C        1.42509200      15.18722500      12.59866300       0.20875097      -0.11815660      -0.22302933
C        7.33334900      20.80048800      11.38448500      -0.06764419      -0.09746384      -0.13379610
O        4.86715500      20.42979400      12.27374500      -0.21849699       0.13637286      -0.16592615
C        8.84306300      21.18461900      11.59107600      -0.29007908       0.57855430      -0.16965066
C        2.60259000      15.61512300      13.54481900       0.22076522       0.15196198       0.32779151
C       11.76952900      20.83401500      12.77798200       0.19238127       0.24393549      -0.06328565
F       29.95402200      16.92625400      13.28635800      -0.19202800      -0.19467726      -0.04728105
F        1.67268400      15.78932500      11.39214700       0.06746267      -0.27700399       0.23954713
F        2.65273400      16.96343100      13.69020100       0.30013107      -0.19583837       0.27324709
F        6.72587100      21.84922700      10.73816200       0.47841806       0.06227572      -0.01141159
F        7.25544500      19.69321400      10.59911900       0.21047052       0.30011358      -0.23598666
F        9.39742900      21.33485400      10.35556000       0.23955690      -0.09959477       0.33423572
F        8.89274300      22.39968000      12.21055800      -0.05745593      -0.20754563       0.26727391
F       10.40327900      18.52244200      14.25134300      -0.00931511      -0.00476117      -0.20358099
F        1.50709300      13.82607900      12.45681800      -0.35178247       0.27796198      -0.18896170
F        2.47377000      15.04786000      14.77155500      -0.20338610      -0.04981050      -0.19730339
O        6.59633600      19.16141900      13.39300700       0.16235438      -0.53952136       0.27690680
C       10.84085600      18.37435900      12.96516800      -1.03187325       0.25273329       0.06363944
C       10.75731900      19.77450500      12.21176800       1.07171507      -0.15705328       0.21318663
C        5.58786900       8.61513500      13.44127000      -0.43173402       0.59468901      -0.02030092
F       10.01707700      14.20947300      21.66334400      -0.16848595       0.11478434      -0.07095525
C       12.49686700      16.72643100      13.51806800       0.19555246      -0.72853910       0.53707367
C        8.37416600       8.29571800      14.92509100       0.14340329       0.30286466       0.03636671
C       14.45334100      16.10230600      11.70660400      -0.03331173       0.15436802      -0.45400337
C       13.12602300      15.72195200      12.48179800      -0.27321110      -0.40260085      -0.03317906
C       17.11184700      16.23153000      11.52675200      -0.09969093       0.10716205      -0.35108879
C       15.84660800      15.93391000      12.43522100       0.08372849      -0.19800221       0.39557299
C       23.92843100      11.77046400      18.82163900       0.11126090      -0.24387172      -0.18668370
C       23.72326000      15.18905300      10.67980300       0.20072604      -0.29007034      -0.22240764
C       26.50532400      11.72722200      18.26114400       0.16127349      -0.12440386      -0.26145344
C       24.77150400      15.71343200      11.74409700      -0.01305195       0.26585414       0.20023753
C       21.17453500      15.65436300      11.61651700       0.03987010      -0.25470430       0.23047525
C       22.29551400      15.88387200      10.52415300      -0.21734154       0.24791761      -0.25153515
C       18.52413600      15.86434400      12.15384900       0.03531051      -0.15766417       0.24854393
C       19.75429400      16.26288600      11.22832500      -0.05759631       0.10282151      -0.38127097
F        3.48599600       9.25766800      12.53226500      -0.01624783      -0.04104201      -0.43469644
F        7.97369400       8.04260600      16.19376800       0.11892484       0.06228755      -0.10659692
F        3.77657900      15.20138400      13.00066200      -0.28324560      -0.22179932       0.05065536
F       11.12102800      19.54249100      10.90721600      -0.35988814       0.22365205      -0.18192047
F        9.97585300      17.51976700      12.33533800       0.23081258       0.20703707       0.09580754
F       11.44011900      16.07683500      14.09583500       0.09224296       0.08529224      -0.44024129
F       12.15150400      15.54386300      11.52567300       0.19632791       0.31980412       0.29131321
F       14.32992500      17.40242000      11.29247500      -0.06477586      -0.03792789      -0.07566294
F        8.07277100       9.58691900      14.62400100       0.02561899      -0.10053323      -0.09874837
F       15.21188800      13.52605700      19.94482200      -0.21378262      -0.00753848       0.06946504
F       13.31519300      14.52244800      13.11779600       0.38135633       0.19038558      -0.19920497
F       14.46017700      15.28856800      10.60132600      -0.28623837      -0.05052270       0.12517417
F       14.62559900      11.45239300      20.50394200       0.00280662       0.24703830       0.09328323
F       15.88569800      16.78024200      13.51084100      -0.08813537      -0.12901231      -0.13800603
F       17.23764500      11.92255800      18.90673000       0.36115929      -0.04769654      -0.05016685
F       15.93538500      14.63938300      12.87497200      -0.18470806       0.28167157       0.28835181
F       16.97418400      15.49862300      10.37880300      -0.23973379      -0.17163195      -0.00933105
F       19.45290600      15.84414400       9.95892600       0.20677636       0.19405248       0.12391381
F       19.14208200       9.98840000      19.28109200      -0.28197702       0.27618484       0.10853244
F       18.53839400      14.51155200      12.35549800      -0.36976940       0.21613569       0.30102787
F       19.72289700      12.88360300      19.05155200      -0.37145399      -0.05718134      -0.02626176
F       21.81074700      15.36386400       9.34646300       0.10050340      -0.04077976       0.18562492
F       21.67068400       5.12414700      14.86424700       0.07169882       0.05966605       0.01924059
F       21.04373700      14.30267300      11.78771300      -0.21355327       0.01333426      -0.27594830
F       21.37823100      10.83318700      18.46508400       0.27589636      -0.03923915       0.06780668
F       23.52197500      13.85312100      10.89048300       0.20428085       0.10560036      -0.02262314
F       21.82221900       7.26927500      14.26507500       0.21213660      -0.15414999       0.07115014
F       24.36634700      15.32041100      12.99119900       0.06594366       0.29023746      -0.27264803
F       23.68552700      11.95765200      17.48778100       0.26949740      -0.16456193       0.15712270
F       26.19037900      13.80707800      11.46915400       0.15854143       0.05802723       0.02630650
F       24.23318600       7.30544000      15.49186900      -0.29970786       0.02125377      -0.16480361
F       27.07075300      15.03978700      13.73752200      -0.07522534       0.05261197      -0.11200652
F       26.33610700      12.14794300      16.96815600       0.07555547      -0.06323629       0.07102159
F       28.84309000      13.81673600      11.94117300      -0.20078723       0.17447096      -0.17000598
O        1.23429600      18.60167700      22.43824900      -0.32286836      -0.23212281      -0.09943999
O        3.07264400      20.22073400      21.98679400       0.09711006       0.54063259      -0.12891152
O        3.32941600      18.29525500      23.60628400       0.33096528      -0.29940241       0.58310413
S        2.81785300      18.87169100      22.40491700       0.13722956       0.02758794      -0.06504120
H        0.81994200      19.08629800      21.69225700      -0.02132627       0.02766404       0.08213338
C       15.75318200       3.75125700      22.49007500      -0.14351230       0.16120869       0.18506391
C       14.64968400       3.30112600      21.44655400       0.04458139      -0.16342756      -0.26991289
O        5.61673700      17.75286800      21.45632400      -0.30907028      -0.17420562       0.58810904
C       13.17330400       3.83585500      21.67991100       0.00001697       0.24149037       0.21358156
C       12.14448500       3.31794100      20.59366600       0.18113217      -0.27657050      -0.17073875
C       22.72382600      12.40993900      19.63446700      -0.09407821       0.35027684       0.15280941
F       27.33546300      16.97028000      12.64439000      -0.08880797      -0.23387579       0.44345619
F       24.80743800      17.08088900      11.69279600       0.15634417      -0.03169965       0.24941554
F       18.33726000       5.08350400      23.25589300       0.08494154      -0.08279724       0.07795123
F       25.34865100      13.69513300      18.97910300      -0.36855327      -0.08292528      -0.24721570
F       18.14679700       3.10222100      24.28159300       0.06617249       0.39054546       0.10852319
F       20.07726700       3.96018000      21.39772800      -0.09565379      -0.24958934       0.20929707
F       19.89436600       1.98306800      22.43419400       0.15059158       0.31156528       0.05023319
F       21.02771000       5.09172500      23.74620700       0.08154871      -0.02988959       0.09526504
F       21.57534100      16.22141100      12.79734600      -0.37762926      -0.05747753       0.08874060
F       22.16608000       3.35953100      23.00556100      -0.28848345      -0.13777617       0.13035443
O        8.49684400      16.16555100      22.85897700       0.12842764      -0.14555068      -0.25264330
C       15.24428600      12.59440800      20.94612700      -0.21617940      -0.22064746      -0.28945173
C       12.83817500      13.18219100      21.89472100      -0.22949309      -0.14985367      -0.26816917
C       16.76829800      12.24419300      21.23756400       0.18284710       0.05273693       0.31229341
F       16.87709100      11.56723100      22.42258200       0.30439858      -0.08198580       0.04895175
C       10.39959900      13.65203700      22.85473500      -0.18097482      -0.22265035      -0.37282747
C        9.42649500      14.20255700      23.97284500      -0.22586989      -0.22155712       0.34410876
C       14.39915600      13.15169600      22.16790700       0.08902702       0.08364982       0.27303164
C       11.95592900      13.85004800      23.02815800       0.20005395       0.15197792       0.36585361
C        9.08317800      15.73655000      24.04019700       0.36728880      -0.13638366       0.81414656
C        7.90697500      18.04748500      20.68355700       0.12644532       0.09699642      -0.30255150
C       17.43059000      11.33825200      20.12965400      -0.36755465       0.00818639      -0.22892384
C        4.72960700      17.90939500      20.40764300      -0.38150494       0.30451171      -0.49178162
C       25.35772300      12.33434400      19.15413300       0.04741372       0.19722574       0.22133600
C       27.96679600      12.11999500      18.67559200       0.30564145       0.12450157       0.23744911
C       18.96365400      10.94200300      20.26050200       0.12869812      -0.39183667       0.02398942
C        3.26806500      17.76440700      20.96503800      -0.07935608      -0.14727897       0.00036458
C        7.23828700      16.72500800      22.86441800      -0.99467247       0.38092902       0.07427763
C        6.84758100      17.11333500      21.37072400       1.12502124      -0.13784816      -0.00938556
F       19.86624500      17.62671000      11.23287000      -0.23923191      -0.09754406       0.26725848
F       17.10567000      17.56654200      11.22088400       0.11858186      -0.22922672      -0.02588587
F       10.15293100      12.30250000      22.80722800      -0.15395201       0.07448949       0.31108911
F       22.35653800      13.57578000      19.01780300       0.29149987      -0.38013866       0.34535266
F       18.66805200      16.50191500      13.35574300      -0.05358128       0.19578438      -0.25935131
F       12.31591200      13.30256000      24.23165000      -0.26802981       0.27305940      -0.15826581
F        8.21759900      13.57447400      23.77459300       0.37282747      -0.27896780       0.02746298
F       13.39231200      16.98466600      14.50968700       0.26634625      -0.15903868       0.04611171
F       13.05299300      20.44196200      12.59980800      -0.31696099       0.01730764      -0.16384973
F       17.45830400      13.42435900      21.33695500       0.28670991      -0.32616657      -0.08880488
F       12.23026700      15.19170200      23.04275700      -0.33346388      -0.28453167      -0.18091723
F       14.84100700      14.41735900      22.44637200      -0.31012289      -0.04491358      -0.00153546
F       11.60288100      22.00373000      12.10490700       0.20666940      -0.05081426      -0.04647218
F        9.10141300      17.42719700      20.54084000       0.01927556      -0.24795566      -0.25192545
F       11.55425200      21.05969400      14.09587600      -0.01381917      -0.41813494      -0.26725180
F       10.21675400      16.45515800      24.26173300       0.06680806      -0.10404124      -0.09133022
F       12.60826100      13.86183600      20.72813000      -0.37765703      -0.28952218       0.24160658
F        9.90366400      13.82365400      25.20059500       0.15431351       0.31058209      -0.25761376
F        4.87783000      16.99922000      19.40512900       0.23073801       0.02641294       0.15694015
F        8.28397100      15.90881900      25.13737900       0.19759289       0.20074969      -0.43035591
F        7.46260000      18.37069200      19.43942900       0.31259063       0.00573459       0.00647764
F        6.82980700      15.94425600      20.64944200      -0.39096403      -0.19993003       0.34811145
F        2.40211300      18.08204400      19.94738700      -0.04011898      -0.18239510      -0.18379944
F       26.45383500      10.35977000      18.29920000      -0.41891913       0.30055427      -0.12192378
F        8.08244300      19.18998000      21.38949400      -0.26328407      -0.21975632       0.36997457
F        6.29376800      15.84160900      23.31490000       0.18159240       0.30375015       0.23333226
F        3.05590300      16.47434100      21.33886900      -0.24514956      -0.06926244      -0.16969179
F       23.10833700      12.70665100      20.91374400       0.02095604      -0.01869141      -0.27335765
F       23.96588300      10.42246700      19.08159800      -0.01216698       0.14294152       0.10353936
F        7.16943300      17.83484800      23.65816700       0.26273488       0.04855529      -0.24467185
F        4.85467300      19.14984700      19.85323500       0.12366853      -0.01806971       0.05565976
F       28.15467500      13.46040200      18.57345100      -0.19840330       0.03725837       0.29098514
F       28.24136400      11.73476300      19.94671800      -0.21341906      -0.08334540      -0.23335848
F       28.84261300      11.49385400      17.84600900      -0.42378777      -0.10917419       0.12280464
296
Lattice="30.0 0.0 0.0 0.0 30.0 0.0 0.0 0.0 30.0" Properties=species:S:1:pos:R:3:REF_forces:R:3 system_type=FORCED_Nafion_four_dry REF_energy=-142250.51860796433 al_round=1 source=cp2k_sp REF_stress="-0.0004526352373018068 -0.0003134392793972054 -0.0002094739662580799 2.904057992690711e-05 6.138407181277118e-05 -9.186351865371169e-05" _cp2k_dir=cp2k_sp_round1 orig_idx=579 dE_per_atom_meV=-5.603377432979303 F_rmse_meV_A=134.75282590061997 pbc="T T T"
O        4.86715600      20.42976600      12.27372800      -0.21840957       0.13642429      -0.16593695
O        6.44836300      21.66092300      13.75170000       0.04094996       0.47096494       0.36744769
O        6.59634300      19.16142400      13.39302100       0.16219548      -0.53897834       0.27675511
S        6.33067900      20.48672900      12.93492000       0.14057045       0.06878216       0.00515043
H        4.58243700      21.34623400      12.07024000      -0.04911167      -0.02781780       0.04917955
C        7.33335600      20.80048400      11.38449100      -0.06763339      -0.09758366      -0.13378119
C        8.84306800      21.18462000      11.59109300      -0.29008782       0.57849363      -0.16971030
O        9.44704800      20.21372500      12.36937800      -0.40432606      -0.46006963      -0.02085113
C       10.75732300      19.77450400      12.21177400       1.07174181      -0.15711755       0.21316709
C       10.84086600      18.37435900      12.96517800      -1.03185834       0.25277031       0.06359316
C       11.76954200      20.83401000      12.77797600       0.19239309       0.24399359      -0.06333245
F        6.72588100      21.84921300      10.73815700       0.47826842       0.06264339      -0.01125526
F        7.25546500      19.69320300      10.59912900       0.20978764       0.30036401      -0.23611471
F        8.89273700      22.39967700      12.21058100      -0.05736286      -0.20762894       0.26709702
F        9.39743900      21.33486400      10.35558000       0.23949673      -0.09989045       0.33422132
F       11.12102100      19.54248300      10.90721800      -0.35971536       0.22381712      -0.18186545
F       11.60288100      22.00373100      12.10491000       0.20666477      -0.05084820      -0.04639145
F       11.55428900      21.05968200      14.09587500      -0.01441103      -0.41825012      -0.26733407
F       13.05300400      20.44196200      12.59977500      -0.31716051       0.01733592      -0.16302544
F        9.97585800      17.51976500      12.33535700       0.23083829       0.20704118       0.09591090
F       10.40329900      18.52244600      14.25135500      -0.00866153      -0.00478277      -0.20342930
O       12.13944400      17.91735100      12.90403000       0.18544546       0.27598069      -0.36069700
C       12.49688300      16.72643500      13.51807400       0.19558435      -0.72845066       0.53705464
C       14.45334700      16.10229900      11.70660300      -0.03332150       0.15428060      -0.45391956
C       13.12603200      15.72194900      12.48180700      -0.27315453      -0.40258593      -0.03316775
F       13.39233400      16.98468100      14.50968500       0.26603052      -0.15908856       0.04614462
C       17.11185200      16.23152700      11.52674500      -0.09969402       0.10718621      -0.35106874
C       15.84661500      15.93391100      12.43521800       0.08372695      -0.19799038       0.39562287
C       19.75429500      16.26288400      11.22832200      -0.05752689       0.10301743      -0.38122778
C       18.52413900      15.86433800      12.15384200       0.03529148      -0.15767754       0.24855319
C       22.29551200      15.88386400      10.52414400      -0.21734874       0.24800452      -0.25158092
C       21.17453400      15.65435600      11.61650900       0.03985724      -0.25472949       0.23047576
C       29.97979900      15.56780400      13.09648800      -0.06755111       0.16547775       0.20137190
C       28.82421200      15.17854600      12.09456700       0.07138309      -0.10148196      -0.22376827
C        2.60257000      15.61512800      13.54484600       0.22076882       0.15199540       0.32773752
C        1.42507900      15.18722500      12.59868300       0.20870726      -0.11812266      -0.22304990
C       27.35981100      15.60629400      12.52709600      -0.13257175       0.17601002       0.14141377
C       26.24437200      15.17611500      11.48703500       0.04815111      -0.15018997      -0.27339262
C       24.77149900      15.71343500      11.74408800      -0.01306686       0.26593128       0.20021439
C       23.72325500      15.18904800      10.67979700       0.20079237      -0.29011353      -0.22241072
F       12.15151000      15.54385500      11.52568800       0.19619370       0.31994656       0.29152353
F       13.31520600      14.52245000      13.11781200       0.38126326       0.19031101      -0.19963332
F       11.44014000      16.07684300      14.09585300       0.09265588       0.08517757      -0.44006182
F       14.32992800      17.40240500      11.29246100      -0.06472701      -0.03784201      -0.07601621
F       14.46018100      15.28854700      10.60133500      -0.28631653      -0.05085848       0.12505487
F       15.88570600      16.78025200      13.51083200      -0.08799293      -0.12899020      -0.13803277
F       17.10567800      17.56653800      11.22087600       0.11846667      -0.22921644      -0.02622885
F       16.97418600      15.49861900      10.37879700      -0.23980578      -0.17164789      -0.00927654
F       15.93539700      14.63938800      12.87498000      -0.18497495       0.28172659       0.28822377
F       18.66805400      16.50190100      13.35574100      -0.05361008       0.19579980      -0.25930452
F       19.86625200      17.62671300      11.23288200      -0.23938001      -0.09772250       0.26740298
F       19.45290800      15.84416000       9.95891900       0.20683858       0.19392598       0.12376623
F       18.53839600      14.51154500      12.35548300      -0.36961719       0.21615060       0.30109677
F       21.57534500      16.22139600      12.79734000      -0.37757321      -0.05718751       0.08869844
F       21.04373200      14.30266500      11.78769800      -0.21348642       0.01338002      -0.27565570
F       22.48496500      17.22874800      10.36440200       0.11216027      -0.05155885       0.03367220
F       21.81074500      15.36385400       9.34645400       0.10043244      -0.04096025       0.18563161
F       24.30154200      15.34955700       9.43980000      -0.34229716      -0.26910762       0.16552712
F       23.52197200      13.85311700      10.89048700       0.20413892       0.10565589      -0.02268947
F       24.80742800      17.08089400      11.69278400       0.15659151      -0.03173667       0.24954872
F       24.36634400      15.32041700      12.99119100       0.06602645       0.29017421      -0.27276887
F       26.64240600      15.63788400      10.26116200       0.25281505      -0.18093471       0.16344864
F       26.19037700      13.80708700      11.46912800       0.15841596       0.05814293       0.02641963
F       27.33544900      16.97027800      12.64440100      -0.08846601      -0.23389687       0.44362126
F       27.07073700      15.03977500      13.73751300      -0.07572208       0.05264694      -0.11223946
F       29.10992500      15.78021700      10.89779100       0.00088292      -0.22847853      -0.09443971
F       28.84308300      13.81674200      11.94116400      -0.20092504       0.17452341      -0.17001832
F       29.95400500      16.92625300      13.28637500      -0.19214421      -0.19472663      -0.04728310
F       29.76016500      14.93492100      14.29177900       0.31541576       0.32470824      -0.07715367
F        1.67267700      15.78932200      11.39216600       0.06733308      -0.27706467       0.23949776
F        1.50708200      13.82607800      12.45684300      -0.35175625       0.27791519      -0.18917664
F        2.65271200      16.96343800      13.69022100       0.30054501      -0.19596898       0.27282698
F        2.47374000      15.04787300      14.77158300      -0.20379851      -0.04991026      -0.19718152
F        3.77656200      15.20138700      13.00069900      -0.28306100      -0.22182503       0.05157633
O        1.79038800       7.06694500      13.21586300      -0.43330908      -0.07191685      -0.32484451
O        2.86416900       8.08235300      15.21486800      -0.00517666       0.35548384       0.47178307
O        3.64078000       5.87863500      14.23797700       0.24483229      -0.66690359      -0.07060764
S        3.11565900       7.19963000      14.11235200       0.13686395       0.12987157      -0.09999124
H        1.18215500       7.80502400      13.43078300       0.04308552       0.01106603       0.00214070
C        4.18770000       8.14004900      12.90017200       0.00221115      -0.06028569      -0.16562688
C        5.58787100       8.61513000      13.44128900      -0.43177670       0.59460159      -0.02035954
O        6.26646700       7.52768500      13.95948000      -0.23408353      -0.49592933      -0.30545891
C        7.64566300       7.35298100      13.90137700       1.02771783      -0.07403595       0.34668346
C        7.90584600       5.80887300      14.19806800      -1.02917565       0.08169372      -0.05096390
C        8.37417900       8.29572500      14.92508700       0.14345317       0.30284152       0.03631272
F        3.48600300       9.25765100      12.53226000      -0.01639027      -0.04063423      -0.43459154
F        4.37842900       7.35484000      11.80402500      -0.08999170      -0.15376586      -0.11606269
F        5.36664800       9.55356100      14.40898000      -0.08617567      -0.08314640       0.03831150
F        6.22859800       9.23534100      12.41218100      -0.07437585       0.13935226       0.10769324
F        8.19252700       7.61591500      12.66874500       0.11616245       0.15023471      -0.04318888
F        8.07277000       9.58692300      14.62400000       0.02562053      -0.10050237      -0.09876122
F        7.97373000       8.04261100      16.19376900       0.11919635       0.06245313      -0.10645808
F        9.71984200       8.16615700      14.85173900      -0.14917439      -0.24933121       0.00394819
F        7.28758000       5.09354100      13.20857600      -0.04376944       0.27626300       0.00591354
F        7.31541200       5.46320400      15.38034400       0.33228426       0.32317638       0.00211807
O        9.26728900       5.58958700      14.21232400      -0.00246260       0.29075734       0.01746859
C        9.78058400       4.32225000      14.44291100       0.26612257      -0.81940653       0.24192540
C       11.91506200       4.64092900      12.75150500      -0.02978623       0.28130647      -0.35997298
C       10.63923100       3.82580000      13.21786000      -0.17630261      -0.39407404      -0.15971591
F       10.54850900       4.35312000      15.56376300      -0.18069149       0.39523258      -0.03355290
C       14.50437200       5.25940000      12.93195800      -0.09395840       0.19727819      -0.29776154
C       13.27190700       4.46979200      13.54569300       0.09344727      -0.31029669       0.29846602
C       17.10798200       5.81477300      12.95687800      -0.05430736       0.20692703      -0.33151755
C       15.92768400       4.93270700      13.55783300       0.05088162      -0.23113036       0.18928926
C       19.71192900       6.11034900      12.45989400      -0.24779060       0.26238521      -0.17468179
C       18.59659000       5.35086400      13.28812700       0.08145358      -0.30808760       0.15622075
C       26.99703200       6.21572500      16.00601800      -0.12073130      -0.06080248       0.20736514
C       26.09976000       6.03152600      14.71653400       0.08303481      -0.08630680      -0.20868052
C       29.44832300       6.35521100      17.02142200       0.21606524       0.04247411       0.30811897
C       28.54998500       6.15269800      15.74717900       0.17450850      -0.13508217      -0.22518495
C       24.53613200       6.07421500      14.97739700      -0.20050852      -0.01444446       0.18882543
C       23.64946100       5.83658900      13.68536700       0.10748395      -0.07471986      -0.28209478
C       22.07761100       5.98139500      13.87718600      -0.11447941       0.15149095       0.28222796
C       21.24176900       5.66651700      12.57131700       0.27911692      -0.15804932      -0.24847606
F        9.76869100       3.82564400      12.15145400       0.38604191       0.37037824       0.11092151
F       11.00893200       2.52826100      13.45954200       0.17109407       0.20932587       0.26205611
F        8.81445900       3.37558100      14.64883400       0.11272180       0.30732913       0.15002080
F       11.57509100       5.96798500      12.74422500      -0.28279309       0.06354533      -0.06537596
F       12.13686000       4.23783200      11.45839000       0.19076353      -0.23080229       0.36672470
F       13.08573000       4.89922700      14.83203500       0.33587609      -0.18751571      -0.28050583
F       14.26106800       6.59885600      13.08105900       0.09881984      -0.11839622       0.04808015
F       14.56698600       4.95201000      11.59939500       0.30055016       0.18422367       0.21857978
F       13.58324100       3.13547700      13.55554600      -0.26452231       0.03941347       0.06124008
F       15.88519100       5.13780200      14.90984300      -0.05667380      -0.17835487      -0.14217996
F       16.95532600       7.09513600      13.41492600       0.28436969       0.10895668      -0.23721514
F       16.96300800       5.80806200      11.59429900      -0.02508626      -0.07352790       0.19958344
F       16.18747200       3.61320600      13.30866900       0.03860974       0.14743427       0.21211860
F       18.81526800       5.55004600      14.62561100       0.03008808       0.10013059      -0.21371217
F       18.71953400       4.01728900      13.00528500       0.22751179       0.08473328       0.17892822
F       19.63047400       7.44677400      12.73884400      -0.05082454      -0.06470079      -0.01620361
F       19.41591700       5.91755900      11.13073700      -0.02251618       0.24777929      -0.00268218
F       21.85889300       6.33258400      11.53545800      -0.31123206      -0.19373110       0.29635823
F       21.30997600       4.32394000      12.32192100       0.22199883       0.07923009      -0.09036297
F       21.82220200       7.26929300      14.26507000       0.21171648      -0.15409445       0.07101028
F       21.67067400       5.12417000      14.86425100       0.07136303       0.05954727       0.01922311
F       24.05024500       6.74995100      12.74821700       0.40909288      -0.25813261      -0.03231311
F       23.89450300       4.56915200      13.22570000       0.08408999       0.16182987       0.05684298
F       24.23316600       7.30544800      15.49189400      -0.29927952       0.02134581      -0.16518876
F       24.21773100       5.10615600      15.89069100       0.14509610       0.19622815      -0.03757205
F       26.42444600       7.03493700      13.84290500       0.44770674      -0.08770753       0.23509398
F       26.40512100       4.82028500      14.15362600      -0.09085148       0.13788313      -0.05202113
F       26.71661700       7.43309400      16.56703400       0.21876696      -0.17051557       0.09113944
F       26.68830100       5.22103000      16.89770200      -0.25502106       0.18570617      -0.16817844
F       28.90834800       7.13948700      14.85507900      -0.27022142      -0.23160859       0.16469151
F       28.87148800       4.93200700      15.21716800       0.09921014       0.26141950       0.00714870
F       29.28495300       7.59876200      17.53644500      -0.23334563      -0.02244882       0.05753204
F       29.16465900       5.44244100      17.98256100       0.17085033       0.05090065      -0.06785296
F        0.75058600       6.20729100      16.66510000      -0.41243172       0.37394950      -0.03206526
O       23.66674200       7.78214900      22.76903500      -0.34357911      -0.15926494      -0.44772063
O       25.05779100       9.32856900      24.14155900      -0.13694262       0.65224727       0.25476600
O       25.38333600       6.82652200      24.18243600       0.28462166      -0.64068553       0.20169534
S       25.06880800       8.04337700      23.50483900       0.29443299       0.06628716      -0.00016249
H       23.33320400       8.60997800      22.35825900       0.05954058      -0.01153757       0.11683711
C       26.17839800       8.19521400      21.99577200      -0.03133147      -0.13226836       0.01299641
C       27.62739900       8.77466000      22.21412400      -0.37862839       0.37832449      -0.27214255
O       28.32482100       7.98379100      23.11297200      -0.51558696      -0.26794085       0.03331687
C       29.59625900       7.46034200      22.89392700       1.01911389      -0.16552609       0.22810366
C       29.64909500       6.07990800      23.67908200      -0.93583791       0.23865650       0.04262375
C        0.68053000       8.49457700      23.36598800       0.17243362       0.25056174      -0.08139290
F       25.52245600       9.04642700      21.14947100       0.13343512       0.14009788      -0.18633712
F       26.27474000       6.97830800      21.39796100       0.45085737      -0.16818924       0.19108646
F       27.52318300      10.03982000      22.70166600       0.13825183       0.00862142       0.05389393
F       28.19823700       8.86388800      20.98233100       0.17121440       0.20537974      -0.06200936
F       29.87955300       7.16794900      21.58500500      -0.30122070       0.01599226      -0.04254713
F        0.48609200       9.66200100      22.69364600       0.01143318      -0.04220106       0.01476173
F        0.58742000       8.74198800      24.69470100       0.05639767      -0.10030234      -0.29598953
F        1.93044500       8.06114800      23.08554400      -0.05262689       0.19577204       0.33218758
F       28.69994600       5.27296100      23.11239300       0.03526165      -0.02456484      -0.02626639
F       29.30051600       6.25757000      24.98585800       0.17230249      -0.02268999      -0.08084372
O        0.92273100       5.56574800      23.56120700       0.05536665       0.25251063      -0.23352715
C        1.20291800       4.24289500      23.85752600       0.25042855      -0.90503044       0.30613253
C        2.90107200       4.00510300      21.73478500       0.00555513       0.09447571      -0.39015362
C        1.66461500       3.47748200      22.56422900      -0.28072181      -0.26339463       0.05143235
F        2.19578100       4.19958200      24.78813800       0.12591567       0.31707258       0.03672770
C        5.55193200       4.24678900      21.47005500      -0.09050130       0.10345246      -0.34991637
C        4.31811800       3.98721000      22.42765500       0.14454486      -0.18699378       0.35477832
C        8.18677600       4.39001100      21.17464900      -0.05338485       0.09119858      -0.36725126
C        6.97486400       3.95754500      22.10754300       0.02679347      -0.15243043       0.24964848
C       10.71609100       4.00717000      20.43577000      -0.21594646       0.24341098      -0.17757994
C        9.61186600       3.78423000      21.54333600       0.05733663      -0.24734169       0.21882455
C       18.36930700       3.72373600      23.08014400      -0.09092913       0.13041048       0.25950403
C       17.22063200       3.31573300      22.07908400       0.06906549      -0.13444865      -0.22785838
C       20.98733900       3.74887900      23.55774400       0.19179557       0.11108349       0.34428000
C       19.81710000       3.34291800      22.59349300       0.19563165      -0.16424465      -0.20467937
C       15.75317700       3.75126400      22.49005800      -0.14349945       0.16121744       0.18505002
C       14.64968600       3.30113800      21.44652900       0.04457728      -0.16341316      -0.26984398
C       13.17330500       3.83586400      21.67988700      -0.00000720       0.24148317       0.21359493
C       12.14448600       3.31794300      20.59364600       0.18112960      -0.27657153      -0.17075777
F        0.59633200       3.51888200      21.69883900       0.12070199       0.07718349       0.16223508
F        1.88274600       2.17003700      22.90945100      -0.13451858       0.19133483      -0.19753170
F        0.14638700       3.55653000      24.38460200       0.09374911       0.14438442      -0.51548051
F        2.63284900       5.28371200      21.32899000       0.20804443      -0.15165550       0.06521449
F        2.92882800       3.19732700      20.62505700       0.05918886       0.04910962       0.13550949
F        4.33348000       4.95187900      23.40085900      -0.01669263      -0.00398830      -0.08233187
F        5.50017500       5.55535500      21.06659100      -0.27045333      -0.15443332      -0.22052405
F        5.42723800       3.43050900      20.37900600      -0.28369246      -0.09434715       0.06249221
F        4.47869700       2.75582500      23.01071200      -0.05601406       0.14744352       0.15234867
F        7.09249300       4.62178600      23.29794400       0.16263154      -0.16732895      -0.10296189
F        8.28589700       5.75441100      21.20689900       0.19960761      -0.01645146      -0.24507809
F        7.87705800       4.00191700      19.89741600      -0.30253967       0.08061900       0.24274764
F        7.03714500       2.61048000      22.33907100       0.01612390       0.01267040       0.20515194
F       10.02405600       4.36010300      22.71658400      -0.27946968       0.04302330      -0.00331775
F        9.49319400       2.43252200      21.72413500      -0.25678586       0.29158163      -0.34223494
F       10.89831200       5.35156900      20.26098900      -0.19649400      -0.23743728       0.08152352
F       10.22500400       3.47233800      19.26839800       0.14127699       0.34506727      -0.05047796
F       12.72936100       3.49686900      19.36080300      -0.03197938      -0.24776335       0.03772323
F       11.95067900       1.97805400      20.78738900      -0.20286520       0.18848450       0.12324378
F       13.20517300       5.20367300      21.63902600      -0.54639340      -0.29518323      -0.12603754
F       12.75040300       3.43149800      22.91781100      -0.15159277      -0.16220165      -0.21641131
F       15.05846300       3.74561900      20.21800400      -0.24078589      -0.00598450       0.12431028
F       14.59969500       1.93184400      21.44887900      -0.14090675       0.07385237       0.08887636
F       15.72725700       5.11663000      22.58512300      -0.46068259      -0.19532724       0.20608062
F       15.45173200       3.20475600      23.70727300       0.26667638      -0.12993894      -0.13327880
F       17.51701300       3.89479300      20.87350000      -0.06242999      -0.07485202       0.13118284
F       17.23896700       1.95138900      21.95126700       0.22535978       0.09195963      -0.23631525
F       18.33724600       5.08351100      23.25589800       0.08449931      -0.08277564       0.07790443
F       18.14677700       3.10222400      24.28159100       0.06684457       0.39045701       0.10855147
F       20.07727000       3.96019200      21.39774500      -0.09574943      -0.24941297       0.20917160
F       19.89436200       1.98307800      22.43420700       0.15054273       0.31158430       0.05014629
F       21.02769000       5.09173400      23.74623500       0.08186187      -0.02989576       0.09602454
F       20.85759600       3.14139600      24.76508400       0.06088630       0.02682895      -0.18691819
F       22.16606900       3.35954100      23.00560000      -0.28851791      -0.13781628       0.13067273
O        1.23429400      18.60165700      22.43825000      -0.32302571      -0.23179988      -0.09968116
O        3.07261100      20.22074000      21.98677300       0.09681335       0.54099048      -0.12898300
O        3.32942300      18.29528200      23.60627900       0.33074416      -0.29947286       0.58267321
S        2.81784400      18.87170200      22.40490300       0.13742136       0.02697087      -0.06437477
H        0.81992500      19.08627500      21.69225600      -0.02124040       0.02752469       0.08232519
C        3.26807300      17.76441000      20.96503800      -0.07934733      -0.14731754       0.00033887
C        4.72961600      17.90940800      20.40764700      -0.38153580       0.30448754      -0.49171220
O        5.61674600      17.75288200      21.45632800      -0.30904662      -0.17412180       0.58817075
C        6.84758600      17.11333700      21.37073000       1.12500993      -0.13777669      -0.00954188
C        7.23829600      16.72501700      22.86442000      -0.99470024       0.38084211       0.07438511
C        7.90698500      18.04747800      20.68355100       0.12644378       0.09681798      -0.30243632
F        2.40212200      18.08203100      19.94738200      -0.04001974      -0.18228197      -0.18384777
F        3.05592400      16.47434400      21.33887800      -0.24510791      -0.06910509      -0.16973190
F        4.85467600      19.14986200      19.85324600       0.12379863      -0.01783112       0.05556926
F        4.87784500      16.99923900      19.40513200       0.23048193       0.02674616       0.15682188
F        6.82979900      15.94425500      20.64945200      -0.39096558      -0.20001693       0.34820350
F        7.46260300      18.37069400      19.43943100       0.31255926       0.00574436       0.00643907
F        8.08247800      19.18996400      21.38949200      -0.26408163      -0.21934700       0.36981774
F        9.10141400      17.42717000      20.54082100       0.01944011      -0.24806828      -0.25225095
F        6.29377100      15.84162700      23.31491400       0.18162840       0.30364474       0.23347830
F        7.16945800      17.83485800      23.65816600       0.26266289       0.04874092      -0.24482406
O        8.49684700      16.16554600      22.85897600       0.12845027      -0.14555376      -0.25272866
C        9.08319000      15.73655400      24.04019300       0.36724818      -0.13639138       0.81419850
C       10.39959900      13.65202600      22.85474100      -0.18095323      -0.22268892      -0.37276679
C        9.42650400      14.20255900      23.97285100      -0.22586526      -0.22158283       0.34409076
F       10.21676700      16.45516100      24.26171600       0.06671036      -0.10404433      -0.09201053
C       12.83817200      13.18218600      21.89471200      -0.22949823      -0.14995960      -0.26812443
C       11.95592900      13.85004700      23.02815000       0.20008223       0.15196352       0.36590657
C       15.24428600      12.59440500      20.94612200      -0.21616243      -0.22070814      -0.28929849
C       14.39915200      13.15167900      22.16790700       0.08900697       0.08361177       0.27295039
C       17.43059500      11.33824700      20.12966000      -0.36752740       0.00814577      -0.22873512
C       16.76830000      12.24419500      21.23756500       0.18281779       0.05272099       0.31225639
C       25.35772300      12.33433500      19.15412300       0.04742812       0.19722060       0.22139205
C       23.92844100      11.77041700      18.82165600       0.11125833      -0.24392469      -0.18679632
C       27.96679400      12.12001400      18.67556900       0.30575458       0.12453705       0.23764297
C       26.50532700      11.72722900      18.26112800       0.16120664      -0.12447071      -0.26156914
C       22.72383000      12.40989200      19.63446400      -0.09407204       0.35033700       0.15287472
C       21.49394700      11.41944100      19.69883400      -0.04623050      -0.31648945      -0.16796658
C       20.08809500      12.03933500      20.06632600      -0.05778298       0.37213584      -0.04165187
C       18.96366000      10.94201000      20.26051900       0.12863333      -0.39183924       0.02403210
F        8.21760500      13.57447500      23.77461000       0.37274828      -0.27900637       0.02707269
F        9.90367900      13.82366400      25.20060200       0.15439219       0.31077595      -0.25773254
F        8.28399100      15.90883100      25.13738000       0.19746331       0.20082323      -0.43046235
F       10.01706600      14.20944000      21.66334400      -0.16824066       0.11517000      -0.07096554
F       10.15293900      12.30248600      22.80726000      -0.15441481       0.07471061       0.31025401
F       12.23026200      15.19170100      23.04273300      -0.33343457      -0.28460263      -0.18020915
F       12.60826400      13.86183300      20.72812400      -0.37766269      -0.28939877       0.24161790
F       12.42637300      11.88396900      21.75396500       0.30262555       0.13431855       0.14085533
F       12.31592500      13.30257200      24.23164700      -0.26814088       0.27328103      -0.15828689
F       14.84100600      14.41733700      22.44638800      -0.31006272      -0.04510692      -0.00167687
F       15.21188700      13.52605500      19.94482300      -0.21378776      -0.00747523       0.06938020
F       14.62560500      11.45238900      20.50393300       0.00293003       0.24697813       0.09327552
F       14.59980600      12.35308200      23.25996700      -0.22932494       0.44239278      -0.07237245
F       17.45830400      13.42436300      21.33694800       0.28671968      -0.32618046      -0.08868198
F       16.87709200      11.56724400      22.42258800       0.30435179      -0.08218943       0.04891010
F       17.23765100      11.92253800      18.90673400       0.36109244      -0.04727848      -0.05030621
F       16.76681200      10.13437700      20.15280600      -0.03957134       0.33071845      -0.10427572
F       19.14209400       9.98838100      19.28113800      -0.28147720       0.27597195       0.10882555
F       19.14859200      10.34098000      21.47565300      -0.00888573       0.25883040      -0.08280341
F       19.72288400      12.88361700      19.05155200      -0.37152238      -0.05740297      -0.02641552
F       20.21158700      12.76088000      21.22401500       0.17640083      -0.31391886      -0.16296476
F       21.37819700      10.83323000      18.46500700       0.27515948      -0.03963459       0.06811727
F       21.79217900      10.45625700      20.63688900      -0.41283487      -0.07549582       0.01578863
F       22.35658100      13.57575400      19.01781600       0.29120317      -0.38042457       0.34578718
F       23.10831800      12.70656200      20.91376000       0.02119772      -0.02159881      -0.27324401
F       23.68553400      11.95755900      17.48778900       0.26978999      -0.16640129       0.15699260
F       23.96591200      10.42242800      19.08165700      -0.01154528       0.14313075       0.10400730
F       25.34862000      13.69512000      18.97906800      -0.36857744      -0.08252728      -0.24723473
F       25.64031900      12.05087200      20.46438100      -0.21089167       0.33977696      -0.30844704
F       26.33610000      12.14795600      16.96814200       0.07532767      -0.06345020       0.07119694
F       26.45385000      10.35977500      18.29917100      -0.41940764       0.30052650      -0.12092876
F       28.15465500      13.46042600      18.57345800      -0.19820276       0.03742652       0.29120008
F       28.24137600      11.73475900      19.94668900      -0.21361292      -0.08342562      -0.23343202
F       28.84261500      11.49390500      17.84597100      -0.42346844      -0.10949301       0.12316665
74
Lattice="30.0 0.0 0.0 0.0 30.0 0.0 0.0 0.0 30.0" Properties=species:S:1:pos:R:3:REF_forces:R:3 system_type=FORCED_Nafion_single_dry_neb_img11 REF_energy=-35562.43424330497 al_round=1 source=cp2k_sp REF_stress="6.85082248247293e-05 -1.8086773263977087e-06 -7.998053983416164e-05 -2.7434464710087643e-05 -2.1958882985744507e-06 6.0173399986933035e-05" _cp2k_dir=cp2k_sp_round1 orig_idx=581 dE_per_atom_meV=-4.325425024010631 F_rmse_meV_A=131.63429134528138 pbc="T T T"
O        2.85701200      11.75430200      11.72371400      -0.14316623      -0.29514004      -0.06417885
O        3.71104300      13.32766800      10.00098600      -0.13442654       0.23677394      -0.56684601
O        4.13160500      13.67380000      12.47234100       0.28053669       0.40461505       0.44495052
S        3.97295300      12.83905300      11.32518500       0.10814575       0.07777690      -0.05996019
H        2.58036800      11.28742600      10.90587100      -0.04784052       0.02247761       0.06318229
C        5.45815100      11.70388000      11.20763600      -0.01409787      -0.08857760       0.14691850
C        6.74006300      12.31162700      10.53208800      -0.24770113      -0.39008420      -0.48790697
O        7.08676100      13.47109800      11.19750400      -0.20126443       0.06334170       0.48101539
C        8.37938500      13.98720200      11.26297300       0.81440779       0.59470700      -0.18805924
C        8.33483100      15.10005900      12.39988600      -0.99886903      -0.42483009       0.00544097
C        8.83934400      14.55111400       9.87119400       0.19743348      -0.02591569      -0.26252251
F        5.06443900      10.63157000      10.44647600      -0.08816930       0.00658151       0.02297435
F        5.76492900      11.27123700      12.45921300       0.36635240      -0.28407195      -0.29471581
F        6.44262600      12.55939100       9.22149400       0.04945620       0.13800860       0.07061073
F        7.70972300      11.35411900      10.55637100      -0.10863683      -0.08697837       0.07463553
F        9.32540000      13.06595400      11.64383300      -0.01631468      -0.18721746      -0.11399295
F        8.91019100      13.52583100       8.98214700      -0.19434662       0.11423001      -0.09930270
F        7.96311700      15.47276000       9.40833200       0.02050404       0.06238062       0.04912607
F       10.07191800      15.10968300       9.93995600      -0.05658176       0.06417988      -0.33757353
F        7.95807900      14.47849900      13.56105400      -0.04790326       0.01320724      -0.23119053
F        7.36830800      16.01863900      12.09530100       0.11438479      -0.21442899      -0.24540102
O        9.57843800      15.67984200      12.51294900       0.03309833      -0.11697698      -0.12445580
C        9.79377900      16.67273600      13.45825200       0.04739829       0.78399523       0.57361881
C       12.37847100      15.99985700      13.98399500       0.09037274      -0.44520609      -0.02929309
C       10.90346400      16.24138600      14.48528100      -0.20432456      -0.05452899       0.43283188
F       10.16920000      17.81356200      12.82047500      -0.24594043      -0.11947197      -0.21691165
C       14.78614900      16.87222100      13.33234700       0.00603541      -0.38248556       0.04668764
C       13.30313800      17.24904600      13.71080700      -0.02280826       0.43257683       0.06079631
C       17.26926400      17.57669700      12.87144700       0.08934070      -0.35280320       0.01873666
C       15.81602600      18.07065000      13.24683500      -0.03193310       0.26066514       0.07776919
C       19.86312400      17.96495600      12.77302700      -0.05488946      -0.38140981      -0.11139100
C       18.44777900      18.62252700      12.99899000      -0.10870265       0.25234248       0.15577081
C       25.83791100      22.98336600      10.84950200      -0.19824338       0.14901909      -0.18618748
C       25.18615600      21.84451600      11.71253900       0.20132408      -0.12914961       0.15240318
C       28.08102000      24.25103500      10.22707700       0.05927165       0.33147487      -0.26232196
C       27.38767800      23.12477100      11.06364800       0.33013070      -0.08956490       0.16429865
C       23.64455900      21.59393300      11.47923800      -0.20478684       0.05689235      -0.16665018
C       23.08417100      20.44202000      12.39881000       0.17892720      -0.18465047       0.18194979
C       21.59868600      19.97525700      12.14047200      -0.06423747       0.11769637      -0.28299466
C       21.17084000      18.79407200      13.09223000       0.28853796      -0.06675973       0.27360808
F       10.46543600      15.04562500      15.00790800      -0.07839500       0.17344663       0.03474949
F       10.93050300      17.15892700      15.50307300       0.07910205      -0.05750581      -0.29722418
F        8.68179100      16.97801900      14.19336800       0.05000128      -0.37658231       0.07965330
F       12.31250800      15.24426700      12.84274500      -0.24517630       0.19329658      -0.06328668
F       12.96106200      15.24865500      14.97415900      -0.02968647       0.37689547      -0.35321458
F       12.78321700      17.98605100      12.68134100       0.13263962       0.05416955       0.04446466
F       14.76408800      16.23945900      12.11750700      -0.28420874      -0.12199423       0.17039319
F       15.23546200      16.00695200      14.29323000       0.35678173      -0.05023062      -0.13163998
F       13.32825900      18.01300100      14.84747200       0.11483936      -0.20932021      -0.27149926
F       15.39793500      18.96963400      12.30494800       0.32307302      -0.22204306      -0.11963807
F       17.24458200      17.12759800      11.57834200       0.33482605      -0.22366234      -0.02057345
F       17.56228200      16.53478200      13.71146200      -0.27549630      -0.23026802      -0.37046617
F       15.85809600      18.68310100      14.46915200      -0.14440191      -0.26222683      -0.31798275
F       18.25316200      19.61584400      12.07636000      -0.11788560       0.07545983       0.10146705
F       18.42306400      19.16435600      14.25555100       0.23837779       0.13801271      -0.18500940
F       19.93624200      17.51680200      11.48240500      -0.22340986      -0.01151854       0.12319133
F       19.95890100      16.88281800      13.61720300      -0.00519260       0.32271152      -0.01358674
F       22.17161600      17.84880700      13.05753500      -0.50559668       0.12691840      -0.23868992
F       21.07635800      19.27218800      14.37034200       0.10811387      -0.21064896      -0.12450002
F       21.49879100      19.55903600      10.84038600      -0.43859064       0.00086749      -0.00037847
F       20.75699200      21.03707100      12.33911400      -0.14864731      -0.17964093       0.13494127
F       23.89693600      19.35642800      12.20708800       0.12226882       0.05187407       0.21427730
F       23.16421100      20.85681800      13.70222700       0.32433543       0.02592289      -0.11397907
F       23.46052700      21.24153000      10.16957100       0.27435370       0.27234875       0.02335847
F       22.95061600      22.74303000      11.74167800       0.25138243      -0.08836934      -0.06225721
F       25.86036100      20.68917800      11.41490700      -0.26578164      -0.05939403      -0.05215689
F       25.36751400      22.15776000      13.03454800      -0.12059812      -0.23495257      -0.12300416
F       25.24429000      24.17582700      11.17316800       0.29051154      -0.29259619       0.08808446
F       25.62292800      22.71049200       9.52247900       0.04438701       0.26008305       0.24733860
F       28.01073900      21.95427500      10.71488600      -0.18992998       0.10432715       0.31387207
F       27.63775500      23.40129600      12.38358800      -0.27357671       0.08669041      -0.38992531
F       27.57188100      25.47183000      10.53140400      -0.28915862      -0.03055191      -0.27837542
F       27.92918100      24.03308700       8.89564100      -0.03927155      -0.11842091       0.11484553
F       29.40971500      24.25659400      10.51133600      -0.25660383      -0.18290984       0.12900563
74
Lattice="30.0 0.0 0.0 0.0 30.0 0.0 0.0 0.0 30.0" Properties=species:S:1:pos:R:3:REF_forces:R:3 system_type=FORCED_Nafion_single_dry REF_energy=-35562.43423931117 al_round=1 source=cp2k_sp REF_stress="6.85067571101527e-05 -1.8135897498490172e-06 -7.997857164542822e-05 -2.743256229624929e-05 -2.200351637421271e-06 6.017647581733488e-05" _cp2k_dir=cp2k_sp_round1 orig_idx=582 dE_per_atom_meV=-4.325435979144705 F_rmse_meV_A=131.63581478209372 pbc="T T T"
O        2.85701100      11.75430300      11.72371300      -0.14318680      -0.29515649      -0.06420816
O        3.71104300      13.32766800      10.00098700      -0.13444505       0.23680993      -0.56695092
O        4.13160500      13.67379800      12.47234100       0.28053669       0.40461865       0.44496080
S        3.97295200      12.83905300      11.32518400       0.10818329       0.07771623      -0.05987071
H        2.58036400      11.28742700      10.90586900      -0.04782972       0.02249201       0.06320749
C        5.45815100      11.70388000      11.20763600      -0.01410970      -0.08862388       0.14693393
C        6.74006300      12.31162700      10.53208900      -0.24767541      -0.39006106      -0.48790903
O        7.08676200      13.47109800      11.19750600      -0.20127523       0.06332010       0.48099070
C        8.37938600      13.98720100      11.26297400       0.81440162       0.59473683      -0.18803507
C        8.33483300      15.10005900      12.39988600      -0.99892250      -0.42479770       0.00541937
C        8.83934300      14.55111500       9.87119500       0.19746228      -0.02597071      -0.26257239
F        5.06444000      10.63156800      10.44647600      -0.08813948       0.00658460       0.02301343
F        5.76492900      11.27123700      12.45921400       0.36632823      -0.28405396      -0.29476260
F        6.44262700      12.55939200       9.22149500       0.04944335       0.13804254       0.07062410
F        7.70972500      11.35412000      10.55637100      -0.10865431      -0.08697477       0.07462885
F        9.32540100      13.06595400      11.64383300      -0.01632034      -0.18723135      -0.11399809
F        8.91019000      13.52583000       8.98214600      -0.19434250       0.11426240      -0.09928213
F        7.96311600      15.47275800       9.40833200       0.02045776       0.06242382       0.04913173
F       10.07191800      15.10968300       9.93995600      -0.05659513       0.06417268      -0.33757713
F        7.95808000      14.47850100      13.56105400      -0.04786109       0.01321547      -0.23115402
F        7.36830800      16.01863800      12.09530100       0.11442233      -0.21444288      -0.24540667
O        9.57843900      15.67984200      12.51295000       0.03311992      -0.11699549      -0.12448871
C        9.79378100      16.67273600      13.45825200       0.04737618       0.78402094       0.57361933
C       12.37847300      15.99985600      13.98399500       0.09037994      -0.44515724      -0.02933526
C       10.90346500      16.24138600      14.48527900      -0.20429062      -0.05458401       0.43289256
F       10.16920300      17.81356200      12.82047500      -0.24592964      -0.11947197      -0.21690959
C       14.78615000      16.87222100      13.33234600       0.00603438      -0.38240946       0.04671541
C       13.30313900      17.24904700      13.71080600      -0.02282060       0.43250021       0.06079888
C       17.26926400      17.57669800      12.87144800       0.08934893      -0.35278418       0.01874489
C       15.81602600      18.07065300      13.24683500      -0.03191922       0.26058492       0.07771880
C       19.86312400      17.96495700      12.77302600      -0.05483341      -0.38143861      -0.11138791
C       18.44778100      18.62252800      12.99899000      -0.10878904       0.25239956       0.15576824
C       25.83791200      22.98336500      10.84950300      -0.19830355       0.14902475      -0.18621782
C       25.18615600      21.84451600      11.71253900       0.20129631      -0.12916555       0.15237798
C       28.08102000      24.25103300      10.22707700       0.05926547       0.33146047      -0.26233276
C       27.38767700      23.12477100      11.06364900       0.33018109      -0.08959678       0.16424054
C       23.64455800      21.59393300      11.47923900      -0.20480175       0.05691240      -0.16669286
C       23.08417000      20.44201900      12.39881000       0.17893440      -0.18463350       0.18195801
C       21.59868400      19.97525600      12.14047200      -0.06416703       0.11774676      -0.28299878
C       21.17084100      18.79407300      13.09222900       0.28846031      -0.06680035       0.27364921
F       10.46543800      15.04562400      15.00790800      -0.07840220       0.17346823       0.03472172
F       10.93050400      17.15892400      15.50307300       0.07913290      -0.05750067      -0.29723086
F        8.68179200      16.97801900      14.19336700       0.05000025      -0.37656740       0.07963838
F       12.31251000      15.24426600      12.84274400      -0.24519121       0.19329555      -0.06327074
F       12.96106300      15.24865500      14.97415900      -0.02975178       0.37690215      -0.35320172
F       12.78321800      17.98605200      12.68134100       0.13266019       0.05416698       0.04445489
F       14.76408900      16.23946100      12.11750700      -0.28418405      -0.12202302       0.17033663
F       15.23546300      16.00695300      14.29322900       0.35679561      -0.05023525      -0.13163792
F       13.32826000      18.01300000      14.84747100       0.11480285      -0.20928730      -0.27148023
F       15.39793400      18.96963600      12.30494700       0.32309050      -0.22209294      -0.11959693
F       17.24458200      17.12759900      11.57834300       0.33481782      -0.22367468      -0.02056266
F       17.56228200      16.53478300      13.71146400      -0.27550247      -0.23022791      -0.37052788
F       15.85809600      18.68310200      14.46915100      -0.14439162      -0.26219444      -0.31793390
F       18.25316100      19.61584700      12.07636000      -0.11790617       0.07538732       0.10148865
F       18.42306500      19.16435800      14.25555100       0.23840607       0.13800294      -0.18502894
F       19.93624100      17.51680300      11.48240300      -0.22339803      -0.01148358       0.12323196
F       19.95890100      16.88281800      13.61720300      -0.00519877       0.32274958      -0.01362119
F       22.17161400      17.84880900      13.05753600      -0.50556428       0.12688446      -0.23871615
F       21.07635700      19.27218700      14.37034200       0.10810615      -0.21062633      -0.12450517
F       21.49879000      19.55903600      10.84038600      -0.43858550       0.00083664      -0.00040829
F       20.75699100      21.03707200      12.33911300      -0.14865348      -0.17964196       0.13492945
F       23.89693600      19.35642700      12.20708800       0.12224722       0.05189566       0.21428964
F       23.16421000      20.85682000      13.70222700       0.32433903       0.02593729      -0.11399347
F       23.46052600      21.24153000      10.16957000       0.27435730       0.27236623       0.02340630
F       22.95061400      22.74303200      11.74167800       0.25142665      -0.08843876      -0.06226390
F       25.86036000      20.68917800      11.41490800      -0.26576364      -0.05941151      -0.05216460
F       25.36751200      22.15776000      13.03454700      -0.12066548      -0.23494845      -0.12296148
F       25.62292800      22.71049100       9.52247900       0.04440964       0.26006659       0.24737254
F       25.24428900      24.17582400      11.17316900       0.29053725      -0.29260030       0.08808600
F       28.01073800      21.95427400      10.71488700      -0.18993152       0.10431532       0.31388801
F       27.63775500      23.40129400      12.38358800      -0.27355306       0.08674646      -0.38988417
F       27.92917900      24.03308500       8.89564100      -0.03922784      -0.11849290       0.11488975
F       27.57188000      25.47182800      10.53140500      -0.28913394      -0.03051797      -0.27839444
F       29.40971500      24.25659200      10.51133800      -0.25662028      -0.18295046       0.12896757
19
Lattice="27.84 0.0 0.0 0.0 27.84 0.0 0.0 0.0 27.84" Properties=species:S:1:pos:R:3:REF_forces:R:3 system_type=FORCED_Pt_particle_3_0 REF_energy=-62114.12909979732 al_round=1 source=cp2k_sp REF_stress="0.0004121937773266765 0.00041219382385837496 0.0004121938165938825 5.940195940842813e-11 1.502739399450011e-10 3.6416797623763123e-11" _cp2k_dir=cp2k_sp_round1 orig_idx=583 dE_per_atom_meV=-40.203202194166614 F_rmse_meV_A=5.1694335336940975 pbc="T T T"
Pt      11.96969300      11.96969300      13.92000000      -0.14689022      -0.14689176       0.00000051
Pt      11.96969300      13.92000000      11.96969300      -0.14689176       0.00000206      -0.14688816
Pt      10.29472800      13.92000000      13.92000000      -0.90473528       0.00000154      -0.00000051
Pt      11.96969300      13.92000000      15.87030700      -0.14688456       0.00000154       0.14689073
Pt      11.96969300      15.87030700      13.92000000      -0.14688662       0.14688713       0.00000051
Pt      13.92000000      11.96969300      11.96969300       0.00000206      -0.14689279      -0.14688713
Pt      13.92000000      10.29472800      13.92000000       0.00000154      -0.90473373       0.00000000
Pt      13.92000000      11.96969300      15.87030700       0.00000257      -0.14688354       0.14688919
Pt      15.87030700      11.96969300      13.92000000       0.14688508      -0.14688559       0.00000103
Pt      13.92000000      13.92000000      10.29472800       0.00000206       0.00000206      -0.90474042
Pt      13.92000000      15.87030700      11.96969300       0.00000206       0.14688765      -0.14688302
Pt      15.87030700      13.92000000      11.96969300       0.14688611       0.00000154      -0.14688302
Pt      13.92000000      13.92000000      13.92000000       0.00000823       0.00000617       0.00000514
Pt      13.92000000      15.87030700      15.87030700       0.00000257       0.14687891       0.14688508
Pt      15.87030700      13.92000000      15.87030700       0.14687685       0.00000206       0.14688559
Pt      15.87030700      15.87030700      13.92000000       0.14687994       0.14688199       0.00000103
Pt      13.92000000      13.92000000      17.54527200       0.00000309       0.00000206       0.90472345
Pt      13.92000000      17.54527200      13.92000000       0.00000257       0.90473219       0.00000051
Pt      17.54527200      13.92000000      13.92000000       0.90473425       0.00000154      -0.00000051
40
Lattice="23.28 0.0 0.0 0.0 14.0 0.0 0.0 0.0 9.838" Properties=species:S:1:pos:R:3:REF_forces:R:3 system_type=FORCED_Zig4x4sat REF_energy=-5085.974960269562 al_round=1 source=cp2k_sp REF_stress="-0.00010321538046722007 -1.33787391680935e-06 0.002926484257964781 -5.103254322750285e-15 3.551948009535134e-10 -3.773531307666044e-17" _cp2k_dir=cp2k_sp_round1 orig_idx=593 dE_per_atom_meV=74.0842582617006 F_rmse_meV_A=14.041877333738906 pbc="T T T"
C        8.09000000       7.00000000       0.00000000       0.20418417      -0.00000000       0.32742796
C        8.80000000       7.00000000       1.22975600      -1.23421034      -0.00000000       0.00137965
C        8.09000000       7.00000000       2.45951200       0.20523010      -0.00000000      -0.32693019
C        8.76567400       7.00000000       3.68690900       0.80206443      -0.00000000       0.05156656
C        8.09726300       7.00000000       4.91945600      -0.44632452      -0.00000000      -0.00835557
C        8.77027900       7.00000000       6.14878100       0.72875251      -0.00000000       0.00028231
C        8.09726300       7.00000000       7.37810500      -0.44691227      -0.00000000       0.00832318
C        8.76567400       7.00000000       8.61065200       0.80192662      -0.00000000      -0.05149200
C       10.22000000       7.00000000       1.22975600       0.43290387      -0.00000000      -0.00030030
C       10.93000000       7.00000000       2.45951200      -0.56653748      -0.00000000       0.07865622
C       10.21883400       7.00000000       3.68741900      -0.38782626      -0.00000000      -0.01957381
C       10.92175500       7.00000000       4.91777000       0.03557790      -0.00000000       0.02164509
C       10.21895800       7.00000000       6.14878000      -0.35123689      -0.00000000       0.00031522
C       10.92175500       7.00000000       7.37979100       0.03505031      -0.00000000      -0.02253726
C       10.21883400       7.00000000       8.61014200      -0.38791933      -0.00000000       0.01962883
C       10.93000000       7.00000000       0.00000000      -0.56758906      -0.00000000      -0.07836414
C       12.35000000       7.00000000       0.00000000       0.56759163      -0.00000000      -0.07837083
C       13.06000000       7.00000000       1.22975600      -0.43290593      -0.00000000      -0.00030082
C       12.35000000       7.00000000       2.45951200       0.56653851      -0.00000000       0.07865879
C       13.06116600       7.00000000       3.68741900       0.38782060      -0.00000000      -0.01957792
C       12.35824500       7.00000000       4.91777000      -0.03557430      -0.00000000       0.02164612
C       13.06104200       7.00000000       6.14878100       0.35122969      -0.00000000       0.00030802
C       12.35824500       7.00000000       7.37979100      -0.03505082      -0.00000000      -0.02253521
C       13.06116600       7.00000000       8.61014100       0.38791728      -0.00000000       0.01964323
C       14.48000000       7.00000000       1.22975600       1.23420777      -0.00000000       0.00138017
C       15.19000000       7.00000000       2.45951200      -0.20522958      -0.00000000      -0.32693019
C       14.51432600       7.00000000       3.68691000      -0.80206443      -0.00000000       0.05156708
C       15.18273700       7.00000000       4.91945600       0.44631937      -0.00000000      -0.00835660
C       14.50972000       7.00000000       6.14878100      -0.72874788      -0.00000000       0.00028128
C       15.18273700       7.00000000       7.37810500       0.44691021      -0.00000000       0.00832523
C       14.51432600       7.00000000       8.61065200      -0.80193536      -0.00000000      -0.05149663
C       15.19000000       7.00000000       0.00000000      -0.20418212      -0.00000000       0.32743053
H        7.00000000       7.00000000       0.00000000       0.05600069      -0.00000000       0.08914735
H        7.00000000       7.00000000       2.45951200       0.05600789      -0.00000000      -0.08912318
H        7.00789500       7.00000000       4.91919600      -0.01102849      -0.00000000       0.01425780
H        7.00789500       7.00000000       7.37836400      -0.01103620      -0.00000000      -0.01428145
H       16.28000000       7.00000000       2.45951200      -0.05600274      -0.00000000      -0.08912318
H       16.27210500       7.00000000       4.91919600       0.01103415      -0.00000000       0.01425882
H       16.27210500       7.00000000       7.37836400       0.01104289      -0.00000000      -0.01428248
H       16.28000000       7.00000000       0.00000000      -0.05599503      -0.00000000       0.08914735
248
Lattice="11.099 0.0 0.0 0.0 9.612 0.0 0.0 0.0 33.0" Properties=species:S:1:pos:R:3:REF_forces:R:3 system_type=2pttop REF_energy=-256924.19333832015 al_round=3 source=cp2k_sp stress_missing=T _cp2k_dir=cp2k_sp_round3 orig_idx=699 dE_per_atom_meV=-8.886756325439144 F_rmse_meV_A=137.7607046306751 pbc="T T T"
Pt      11.06747900       9.25827800       0.00231000       0.13706449       0.30240443       0.17477229
Pt       2.79683700       9.26279600       0.00198000      -0.32848314       0.05142618       0.23052461
Pt       5.51664700       9.26068100       0.00297000       0.42764288       0.01725827       0.03437617
Pt       8.34711400       9.26097000       0.00231000      -0.20382216       0.06694279      -0.04683933
Pt       1.35818500       2.05168100       0.00132000       0.15124156       0.07779130       0.01507644
Pt       4.19653200       2.05120100       0.00231000      -0.30005856      -0.11216130      -0.36191982
Pt       6.90923800       2.05293100       0.00000000       0.41041803      -0.03791195       0.09332951
Pt       9.74403400       2.04850900       0.00132000      -0.34476028       0.03299240      -0.02856856
Pt      11.06747900       4.45227800       0.00231000       0.14534859      -0.03364803       0.00683759
Pt       2.79683700       4.45689200       0.00198000      -0.27882227       0.22742900       0.38061226
Pt       5.51664700       4.45468100       0.00297000       0.40132969       0.35299295       0.19147469
Pt       8.34711400       4.45497000       0.00231000      -0.20356505       0.15608963       0.02777254
Pt       1.35818500       6.85768100       0.00132000       0.29293506      -0.10183009      -0.51506296
Pt       4.19653200       6.85720100       0.00231000      -0.17843509       0.05252816      -0.01577526
Pt       6.90923800       6.85883500       0.00000000       0.20864555       0.05226590      -0.02774940
Pt       9.74403400       6.85450900       0.00132000      -0.45854240       0.05415464       0.09081908
Pt       1.38193600       0.68821900       2.37237000       0.03085735      -0.03017601      -0.03768878
Pt       4.16712000       0.69168000       2.37963000      -0.05480101      -0.06171317      -0.23039554
Pt       6.93188000       0.68687400       2.37171000       0.11828052      -0.14185086       0.08136771
Pt       9.71717500       0.69196800       2.37963000      -0.03109544      -0.27962394       0.15401423
Pt      11.09367200       3.09573700       2.37963000       0.00902560      -0.11423566       0.17783191
Pt       2.77919000       3.09045000       2.37105000      -0.11250891      -0.16187718       0.08983229
Pt       5.54550400       3.09429500       2.37963000       0.06613752      -0.10718210       0.25112121
Pt       8.32902300       3.08910500       2.37039000       0.02139621      -0.10569035       0.07105964
Pt       1.38193600       5.49421900       2.37237000       0.00096314      -0.11084592       0.01400634
Pt       4.16712000       5.49768000       2.37963000      -0.06482009      -0.22201735       0.09954541
Pt       6.93188000       5.49287400       2.37171000       0.12336257      -0.29558998       0.07373719
Pt       9.71717500       5.49806400       2.37963000      -0.03615845      -0.37382403       0.28891437
Pt      11.09367200       7.90173700       2.37963000      -0.03099517      -0.20355631       0.14303305
Pt       2.77919000       7.89645000       2.37105000       0.02861844      -0.20902505       0.00576287
Pt       5.54550400       7.90029500       2.37963000       0.06136709      -0.17442262       0.02289465
Pt       8.32902300       7.89510500       2.37039000       0.02355748      -0.13331068       0.22933111
Pt      11.08612500       1.50994900       4.69557000      -0.01568116      -0.17301263      -0.13286434
Pt       2.77308500       1.51437100       4.69161000      -0.06370834       0.01024276      -0.02575114
Pt       5.53240800       1.50014500       4.70184000      -0.02361198      -0.06042196      -0.52191701
Pt       8.33523800       1.49341600       4.69260000      -0.05454339      -0.15660436       0.05778349
Pt       1.38693100       3.91487100       4.74012000      -0.03423476       0.21152210       0.32461825
Pt       4.13881700       3.94245800       4.73682000       0.01768405       0.02474738      -0.00695021
Pt       6.92966100       3.89978100       4.73253000      -0.10692036       0.05136859      -0.10689002
Pt       9.73559900       3.90795100       4.77345000       0.14612814       0.08605329      -0.10076771
Pt      11.09877800       6.27346400       4.72065000       0.11017178      -0.11551813       0.09596849
Pt       2.75921100       6.28394100       4.69425000      -0.01054101       0.25727849      -0.03327728
Pt       5.56215300       6.31248900       4.68435000      -0.14586178       0.19571907      -0.33563800
Pt       8.34356200       6.27596300       4.71042000      -0.04078336       0.18952374       0.09162230
Pt       1.37849600       8.71856500       4.68402000       0.15586543      -0.06143137       0.24342949
Pt       4.16523300       8.71270100       4.68963000      -0.06508491       0.08766588      -0.04043729
Pt       6.96384600       8.70856800       4.70052000       0.05770636      -0.17650830       0.24450782
Pt       9.71961600       8.68021300       4.77081000      -0.05718082       0.19821510      -0.27688726
Pt       0.04950200       9.60700200       7.10028000      -0.35156445       0.24635644       0.18961990
Pt       2.75843400       9.50357700       7.03989000       0.82652025       0.63310386      -0.77301045
Pt       5.66848100       9.38736800       7.02768000      -0.04229774       0.17463757      -0.54589666
Pt       8.33401700       9.46176400       7.15968000       0.26056898      -0.19962715      -0.14072317
Pt       1.38238000       2.26285700       6.97455000      -0.46320998       0.96072002      -0.49472348
Pt       4.14314600       2.50459900       6.98610000       0.07970883      -0.11180700      -0.43590435
Pt       6.92200200       2.13742000       6.96465000       0.36992315       0.47953700       0.03986599
Pt       9.69641900       2.25180300       7.03263000       0.33219889       0.31037743      -0.19742320
Pt      10.98967500       4.98978100       8.51169000      -0.81902395       0.05841238      -0.71438621
Pt       2.82846900       4.80821100       7.38606000      -0.55617851      -0.70358809       0.06605524
Pt       5.46492600       4.84675500       7.11480000       1.44018863      -6.94423134      -7.15994486
Pt       8.30782300       4.71901100       7.06860000       0.70206137       0.18739795      -0.38996850
Pt       1.38904000       7.26032800       6.92868000      -1.06677752      -0.72134670      -2.50323497
Pt       4.15701900       7.13277700       6.98313000      -6.26555982       4.99285594     -10.37150697
Pt       6.97283600       7.08500500       7.05375000       1.94774757       0.67392270      -1.37359808
Pt       9.74014900       6.90324200       7.07784000      -0.00802339       0.20762997      -0.31026635
O        1.51834300       6.09074000       8.49255000       0.30935516      -0.23224417       1.22955819
O        9.90086300       8.51921200       8.26419000      -0.48115422       0.19430599       0.64886781
O        6.86251200       3.77299800       8.14407000       0.17556368      -0.61351874       0.68352937
O        9.56711600       3.66313300       8.53413000      -0.46757726      -0.21087881      -0.06634424
O        1.35663100       3.67889700       8.35758000       0.76913734      -0.73747677       0.32670342
O        4.24847500       0.78703100       8.03055000      -0.01102232       0.22895521       1.07480091
O        9.03536300       1.94287400      13.29900000      -0.11588528      -0.14362852      -0.05346661
H        8.95356300       1.80388400      12.33738000       0.02472784       0.03803228       0.08375112
H        9.73426700       1.32655200      13.65243000       0.00326942      -0.01886778      -0.03643151
O        2.12634600       6.10611900      11.21571000       0.36765441       0.16632519      -0.09029458
H        2.99550900       6.55144300      11.06358000      -0.03663874      -0.20595669       0.11025405
H        2.10725600       5.91041900      12.17700000      -0.16369392       0.03370202       0.10482183
O        4.63893800       7.32549700      10.97712000      -1.16703513       0.97831305       2.44132948
H        4.53538400       8.29967400      10.90485000      -0.01822861       0.23759103       0.08049199
H        5.10087800       7.07462400      10.15674000       1.25458428       0.33473092       0.66195370
O        0.74019200       8.33091300      13.13763000       0.05755209      -0.01567139      -0.27379885
H        0.29612100       8.11108600      12.27369000       0.02208269      -0.04166422       0.17536622
H        1.04275100       7.47217700      13.51515000      -0.06861452      -0.04349073      -0.02782294
O        2.42990400       3.75060200      24.65529000       0.06334222      -0.01627663      -0.18893907
H        2.39172400       2.99913600      24.03951000      -0.00258087       0.14839637       0.12777098
H        1.52322700       4.12816200      24.65496000       0.01788717      -0.00824656       0.02078120
O       10.88467800       7.35962000      10.68672000       0.05443900       0.13043876       0.64489391
H       10.71963600       7.88914500       9.87987000      -0.25477886       0.04089134      -0.25310558
H        0.69313300       6.94870700      10.62237000      -0.17267736      -0.42387724       0.23705881
O        7.27295300       2.24824700      10.42833000      -0.14850230      -0.02958466       0.03254657
H        7.61502400       2.92675800       9.79770000      -0.02255783      -0.07453166       0.02454272
H        7.44287800       1.40181400       9.97062000      -0.01577423       0.01009878      -0.14108055
S        3.69075000       1.80350000      10.81377000       0.28543361       0.05689029       0.32900713
O        4.32050800       0.54461600      11.14542000       0.23642529      -0.73353630       0.18232722
O        2.49516600       1.85617300      10.03431000      -0.59163916       0.00353887      -0.00228725
O        4.74826300       2.78411600      10.23495000      -0.06933392       0.33697343       0.04093299
H        5.73918200       2.49383300      10.37751000       0.16795424      -0.06783136       0.00899680
C        3.26244000       2.61398300      12.49611000      -0.23200762       0.20615878       0.12204205
C        3.73137300       1.79225400      13.74450000      -0.01575469      -0.02639906      -0.51084687
O        3.40950200       2.55804200      14.88399000      -0.20396460      -0.01823426       0.11760690
F        1.91324600       2.77469600      12.58950000       0.24264685      -0.01741820       0.24301709
F        3.85568200       3.83999400      12.54297000      -0.18043695       0.19017474      -0.02958877
F        3.07819700       0.60719000      13.80192000       0.01921643      -0.09638295      -0.22059604
F        5.05992300       1.54263000      13.63989000      -0.08301476       0.36706820      -0.05527461
C        4.08132400       2.26852800      16.07067000       0.34066451       0.21947452       0.73975889
C        5.23317900       3.30902700      16.27494000       0.64350552       0.21128350      -0.27065696
C        3.06920600       2.31466600      17.28837000      -0.79872971       0.05680853      -0.64829034
O        3.81528100       2.05783300      18.41862000       0.55694572      -0.00242764      -0.00148918
F        5.96948600       3.44590200      15.15063000      -0.00730553      -0.21404281       0.07187262
F        6.06282900       2.91570400      17.27088000       0.00672446       0.04417567       0.13668243
F        4.72473300       4.53205800      16.58481000       0.09363393       0.08798161      -0.18163817
F        4.62695100       1.00993300      16.10268000       0.07000857      -0.20414869       0.12871920
F        2.13689000       1.33626000      17.06067000       0.07246758       0.05051858       0.38617510
F        2.40337700       3.49050200      17.32038000       0.02270593       0.11356152      -0.21006223
C        3.53847200       2.15366500      19.79373000       0.07792963       0.01714823       0.40131735
C        2.11813300       1.59578400      20.14155000      -0.39453375      -0.22649569      -0.12839782
F        4.47378500       1.31578700      20.37123000      -0.12102801      -0.04399415       0.01242100
F        2.10170700       0.30027900      19.67031000      -0.17161858      -0.06135630      -0.16600689
F        1.19525100       2.33129400      19.48749000      -0.13002327       0.33549608       0.34925714
C        1.66929000       1.50370100      21.64239000      -0.11029313       0.03171456       0.48660136
F        2.65477000       1.00877900      22.43373000       0.06835330      -0.24350508       0.03181638
F        1.29758400       2.72827000      22.11858000       0.21340672      -0.24155619      -0.11185894
F        0.58525000       0.68447100      21.76515000       0.29916382       0.34544933       0.05924748
C        3.88531600       3.58777500      20.34219000       0.13084191       0.55733962       0.01924882
F        3.97854800       3.57547200      21.70080000       0.24742705      -0.56272248      -0.00613774
F        2.95965900       4.51062300      19.99734000      -0.04990872      -0.39274478       0.30979893
F        5.08400800       3.97686900      19.85082000       0.07004611       0.03865860       0.25474595
O        1.50080700       5.74480400      14.00751000      -0.02574292       0.10488508      -0.05085334
H        2.12434900       5.40790300      14.67213000      -0.04790788       0.01776067      -0.05886387
H        0.72987000       5.09147600      13.95768000       0.01998776      -0.00690341      -0.04577644
O        1.20812600       7.06549300      30.65535000      -0.04364294      -0.14127802      -0.32373996
H        0.79368900       7.92528600      30.45504000      -0.00943852      -0.00896852       0.19261472
H        2.03000700       7.02262300      30.07455000      -0.01144964       0.01389733       0.20464800
O        9.90574700       4.98651300      26.67687000       0.12908327      -0.05080706      -0.00552736
H       10.15214400       5.05908400      27.61737000      -0.03114995       0.02759411      -0.00454057
H       10.66070000       5.34830900      26.13402000      -0.09675062      -0.04100653       0.18477954
O        8.77120700       4.87578300      29.54193000       0.00242404      -0.06412177       0.01294551
H        8.46365300       4.02204500      29.14527000       0.01709064       0.08494668       0.09156265
H        8.80594700       4.69998000      30.51015000       0.07821142       0.05282846      -0.00645913
O       10.36435700       4.36692400      14.00487000      -0.05058029      -0.09692134       0.06440820
H       10.08677100       4.60991500      14.91567000      -0.00254076      -0.00316657      -0.05075975
H        9.90641200       3.53173700      13.75242000       0.02140495       0.08419027       0.03364803
O        6.66006600       7.66297500      22.21461000      -0.06491162       0.11143830       0.06846180
H        7.06185000       8.25613100      21.52029000       0.02180964      -0.03321968       0.00169179
H        6.97849600       6.73051500      22.03212000       0.03263450       0.00555307      -0.01717806
O       10.68056800       0.29633800      14.75661000      -0.07288255      -0.08461193      -0.10004780
H        0.22164700       0.83461000      15.25392000      -0.01983143      -0.01452159      -0.08225937
H        0.10899200       9.28077000      14.12169000      -0.07579047       0.07803402       0.08009141
O        4.21806400       6.67937900      26.45775000      -0.00776010       0.16578577       0.03830995
H        3.82826700       6.63554800      25.52550000       0.12608639       0.02834744       0.10747726
H        5.09710500       7.08471700      26.35545000      -0.02865238      -0.06362555      -0.02752109
O        0.11887000       5.05831500      18.77535000       0.13380485      -0.11152007       0.13004024
H        0.99191800       5.48249300      18.61365000      -0.08595713       0.05405591      -0.04175420
H       10.85138100       5.51565400      19.56999000       0.04381777      -0.03199635      -0.11329516
O        4.09419900       2.36782000      30.86292000      -0.14839072      -0.24849405      -0.31347046
H        4.29542400       3.32469500      30.56328000       0.01682787       0.08779855      -0.05703067
H        4.73993900       1.84415800      30.31446000      -0.01295733       0.02210378       0.14955337
O        2.07218300       6.73849300      17.52234000       0.07392076       0.12480496       0.19492974
H        2.96620800       7.01310700      17.83782000      -0.18527936      -0.00848258      -0.07058553
H        1.46562300       7.44968400      17.83914000      -0.02779106      -0.02902724       0.02079046
O        7.73356100       7.34472100      28.87929000       0.03594043       0.01051478       0.00550833
H        8.43734900       8.05495200      28.89249000      -0.02901233      -0.08498319       0.06719836
H        8.10382400       6.49550100      29.24592000       0.05410836      -0.09362519       0.07346774
O        4.35413800       7.84781400      18.80703000       0.04980587       0.02807285       0.02672456
H        5.23384400       8.08647900      18.42390000       0.00106187       0.00896698      -0.00390139
H        3.93648200       8.70789500      18.99711000       0.10480229      -0.11112206      -0.04515320
O        7.66552400       9.55221300      20.46792000      -0.00832472      -0.05093201      -0.00127681
H        7.16684600       9.51251600      19.61520000       0.05013754       0.02353588       0.00492006
H        7.46174700       0.78972200      20.93586000      -0.01201477      -0.03543032      -0.08330683
O        5.64861400       1.30088800      28.87731000      -0.08270828       0.08025699       0.00504348
H        5.61376300       0.31556200      29.11293000       0.00953211      -0.03819734       0.07683434
H        4.99677000       1.46352300      28.17375000       0.04177426      -0.02039193       0.05982135
O        7.46285700       1.42151900      24.66486000      -0.01867290      -0.01602723      -0.13271264
H        6.54019700       1.54109200      24.95064000       0.13619906       0.00847693      -0.00704894
H        7.62112800       0.43157900      24.67740000      -0.04350975       0.04602069       0.01068551
O        7.79993300       2.26189600      22.05621000      -0.02358473       0.11932182       0.10380881
H        7.65409200       1.99362500      23.01255000       0.07819240       0.03592243      -0.06804425
H        8.76843200       2.29390400      21.95094000      -0.09041902      -0.01572538       0.01904416
O        3.15200500       6.32152400      24.08934000       0.03783121       0.00672858      -0.07048783
H        3.15444700       5.33379500      24.02895000       0.03803433       0.07124476      -0.02649213
H        3.41915800       6.70494700      23.19339000      -0.00784495      -0.06056594       0.03837886
O        8.15465700       2.35445900      28.28859000      -0.06333553      -0.06000750       0.04897952
H        7.21812400       2.06139000      28.45326000      -0.00304779      -0.01979287      -0.02576091
H        8.21381500       2.54064400      27.33192000      -0.06826177      -0.03007934       0.08027962
O       10.95726600       8.27324100      18.56646000      -0.09433944      -0.04619244      -0.06963062
H       10.33538900       8.10339700      17.81934000      -0.00915981       0.01033789       0.05327738
H       10.76680700       9.24030400      18.74334000      -0.07109718      -0.05166684      -0.04496860
O        7.62445800       6.40120800      26.32575000      -0.03724912       0.11557572      -0.05429759
H        8.48230000       5.87504700      26.35347000      -0.07770594       0.05315859       0.06501858
H        7.61646700       6.84720400      27.21840000       0.06965068      -0.06768070       0.04014418
O        6.45007300       6.90132000      14.56092000      -0.24233883       0.05502110       0.01014043
H        5.98913100       6.57085900      13.76925000       0.08474871       0.09953461       0.05329486
H        6.37693000       7.87299700      14.51604000       0.03931114      -0.07839397      -0.00839002
O        7.59782000       5.47893600      16.81614000      -0.00563174       0.05070370      -0.08154049
H        7.24043300       5.90474800      16.00038000       0.07073465      -0.03619445       0.13229767
H        6.85496400       5.51421200      17.44149000       0.11661599       0.04657502      -0.08390847
O        7.75309500       5.26199300      21.81762000       0.13789187       0.01759715      -0.08305384
H        7.61036200       4.29243100      21.78990000       0.04404197       0.07578121       0.01163116
H        8.50949200       5.49277700      21.23055000      -0.03096380      -0.00778479       0.01947354
O        0.54806900       5.98087500      24.86913000      -0.00127218       0.03279494      -0.22015175
H        0.00077700       6.56393900      24.28437000       0.05347792      -0.06082408       0.02193665
H        1.47672200       6.26808100      24.66486000      -0.09501461       0.01506461       0.03631529
O        5.55194200       8.46692200      29.78283000      -0.07326873       0.02436120      -0.20826811
H        6.38891700       7.96104300      29.51652000       0.02267096      -0.01985560       0.07906297
H        5.60721500       8.57054000      30.77118000      -0.03572548      -0.01017746       0.07766223
O        9.14602000       8.25468900      16.31883000       0.11323602       0.06737268       0.07117740
H        9.45668100       7.31434800      16.17990000      -0.00305139       0.02610955      -0.01030447
H        9.79497800       8.83515800      15.82680000      -0.02970087      -0.07697472       0.01344636
O        7.97973700       8.36455500      24.43254000       0.12713335       0.02335385      -0.17661115
H        7.41191200       8.08205800      23.64813000       0.01483681      -0.02715034       0.02714674
H        7.84976800       7.66095600      25.13478000      -0.02309314      -0.07354230       0.06686411
O        4.80842000       4.62289100      29.80923000       0.02590592       0.04879080      -0.04548642
H        5.22962700       4.45843000      28.92120000      -0.00352601       0.00445675       0.10977840
H        4.21540000       5.39915700      29.64522000       0.02033177      -0.05585465       0.11931565
O        6.81090100       8.96943800      17.85333000      -0.15197586       0.06318898       0.03994723
H        7.62823200       8.59187800      17.43852000      -0.01209807       0.02768975      -0.03355341
H        6.53620100       0.05901800      17.23062000       0.13345415      -0.07245164      -0.04966600
O        8.97653800       2.52459200      16.80987000      -0.16552609      -0.04272557      -0.09901319
H        8.56920500       3.41408600      16.85970000       0.03561441      -0.04098750      -0.03938108
H        8.35177600       1.97151700      16.28781000       0.07229326       0.05351803       0.00707002
O        3.41138900       6.92679200      29.08983000      -0.10367152      -0.08888613       0.01097707
H        3.48775000       6.87219600      28.10049000       0.00385306       0.03192745       0.19233653
H        4.14492200       7.54417000      29.36736000       0.00964472      -0.02442548       0.05122615
O        5.65027900       4.35635100      27.20685000      -0.02572749      -0.07845619      -0.17506643
H        4.94604700       4.95210200      26.84946000       0.09737900      -0.09454153       0.07255757
H        6.46083900       4.84838900      26.93757000      -0.06752900       0.00071734       0.04229722
O        9.88898700       1.08519500      19.04364000       0.01154528      -0.09312022       0.26868133
H        9.54303100       1.63644300      18.29421000      -0.00270274      -0.01011883      -0.01514894
H        9.10628600       0.70215700      19.50069000       0.07261207       0.04583249      -0.10507637
O       10.33283600       7.81974600      23.22606000       0.06659415       0.12312551       0.13974358
H        9.48465000       8.10128200      23.69334000      -0.01240095      -0.01990291      -0.01094004
H       10.86492200       8.62417500      23.10066000      -0.06491265      -0.07262596       0.06162318
O        9.43648100       9.45186400      28.71924000       0.09450245       0.11072919       0.05728418
H       10.15369800       9.41341600      28.06485000      -0.11442233       0.03354827       0.05844324
H        9.02259900       0.73560600      28.60539000       0.05963726      -0.02201070       0.02725267
O        7.40969200       0.58037300      15.15723000      -0.08512975      -0.11881429       0.10623645
H        7.78506100       1.04597800      14.36787000      -0.02083571      -0.04661719       0.10209440
H        8.00737400       9.42658500      15.31002000      -0.00943389       0.08934841      -0.01854023
O        9.91762200       6.65035100      20.70024000      -0.00920918      -0.01678416      -0.01403822
H       10.10475200       7.05674600      21.58398000      -0.01608996      -0.04216712      -0.14190074
H       10.12328700       7.35010400      20.03067000       0.02962117      -0.00720475      -0.05748010
O       10.49865500       5.88850300      16.32378000       0.10154624       0.08171018       0.12515360
H        0.30833000       6.12697700      16.05252000      -0.09199099      -0.01420895       0.03465127
H       10.61219800       5.54968000      17.26758000      -0.05437524       0.04388719      -0.18794714
O        3.97444100       7.49092000      21.86877000       0.07874055      -0.04504984      -0.09235712
H        3.88931200       7.27215100      20.92134000       0.04603201      -0.00772565       0.04041260
H        4.95614700       7.61635700      22.00572000       0.02034463      -0.04603252      -0.07689450
Pt       5.19510900       6.35180200       8.66745000       3.49565001       0.43086807      14.96932266
Pt       1.88139100       8.33802600       9.11526000       0.15925003       1.07804153       0.92144282
14
Lattice="5.603 0.0 0.0 0.0 5.603 0.0 0.0 0.0 5.603" Properties=species:S:1:pos:R:3:REF_forces:R:3 system_type=pt3o4 REF_energy=-23101.114721742004 al_round=3 source=cp2k_sp stress_missing=T _cp2k_dir=cp2k_sp_round3 orig_idx=770 dE_per_atom_meV=-61.363352277112426 F_rmse_meV_A=79.27232300484137 pbc="T T T"
Pt       0.00000000       4.20198900       2.80132600      -0.00000309       0.00312698       0.00000000
Pt       0.00000000       1.40066300       2.80132600      -0.00000309      -0.00312749       0.00000051
Pt       2.80132600       0.00000000       1.40066300       0.00000000      -0.00000309      -0.00312749
Pt       2.80132600       0.00000000       4.20198900       0.00000051      -0.00000309       0.00312749
Pt       1.40066300       2.80132600       0.00000000      -0.00312749       0.00000000      -0.00000309
Pt       4.20198900       2.80132600       0.00000000       0.00312749       0.00000000      -0.00000309
O        1.40066300       4.20198900       4.20198900       0.10494627      -0.10494473      -0.10494370
O        4.20198900       4.20198900       1.40066300      -0.10494473      -0.10494370       0.10494627
O        4.20198900       1.40066300       4.20198900      -0.10494421       0.10494627      -0.10494473
O        1.40066300       1.40066300       1.40066300       0.10494473       0.10494473       0.10494473
O        4.20198900       1.40066300       1.40066300      -0.10494370       0.10494524       0.10494575
O        1.40066300       1.40066300       4.20198900       0.10494524       0.10494627      -0.10494370
O        4.20198900       4.20198900       4.20198900      -0.10494524      -0.10494473      -0.10494524
O        1.40066300       4.20198900       1.40066300       0.10494575      -0.10494370       0.10494524
14
Lattice="5.603 0.0 0.0 0.0 5.603 0.0 0.0 0.0 5.603" Properties=species:S:1:pos:R:3:REF_forces:R:3 system_type=pt3o4cell_optimised_structure REF_energy=-23100.41042239284 al_round=3 source=cp2k_sp stress_missing=T _cp2k_dir=cp2k_sp_round3 orig_idx=771 dE_per_atom_meV=-64.94611369271297 F_rmse_meV_A=32.59212131818224 pbc="T T T"
Pt       0.00000000       4.32249400       2.88260600       2.66998542      -0.24508580      -0.58592926
Pt       0.00000000       1.44272200       2.88260600       2.76013447       0.25689848      -0.62740835
Pt       2.88260800       0.00000000       1.44272100      -0.62743098       2.76010311       0.25687174
Pt       2.88260800       0.00000000       4.32249000      -0.58595034       2.66995662      -0.24506420
Pt       1.44272200       2.88260800       0.00000000       0.25689539      -0.62742378       2.76002906
Pt       4.32249400       2.88260800       0.00000000      -0.24508323      -0.58594160       2.66988155
O        1.44140700       4.32380900       4.32380600      -1.25283953      -0.00459713      -0.86586688
O        4.32381000       4.32380900       1.44140500      -0.00458582      -0.86591110      -1.25286575
O        4.32381000       1.44140600       4.32380600      -0.86593938      -1.25282359      -0.00450920
O        1.44140700       1.44140600       1.44140500      -0.08254784      -0.08255350      -0.08255350
O        4.32381000       1.44140600       1.44140500      -1.03900138      -0.23076681      -1.02211797
O        1.44140700       1.44140600       4.32380600      -0.23075447      -1.02207580      -1.03893504
O        4.32381000       4.32380900       4.32380600       0.20281635       0.20281326       0.20290273
O        1.44140700       4.32380900       1.44140500      -1.02210049      -1.03898081      -0.23076424
2
Lattice="2.816 0.0 0.0 0.0 2.816 0.0 0.0 0.0 2.816" Properties=species:S:1:pos:R:3:REF_forces:R:3 system_type=mptrj_pt REF_energy=-3414.9109253675488 al_round=4 source=cp2k_sp REF_stress="0.19196330554524865 0.19196330554899357 0.19196330555086602 -1.192787713604866e-11 -1.1767466837929183e-11 -1.2044987759445755e-11" _cp2k_dir=cp2k_sp_round4 orig_idx=815 dE_per_atom_meV=-476.83638086959945 F_rmse_meV_A=1.174242032810054 pbc="T T T"
Pt       0.00000000       0.00000000       0.00000000       0.00003034       0.00003034       0.00003034
C        1.40802500       1.40802500       1.40802500      -0.00003034      -0.00003034      -0.00003034
60
Lattice="15.314 0.0 0.0 0.0 7.718 0.0 0.0 0.0 9.202" Properties=species:S:1:pos:R:3:REF_forces:R:3 system_type=mptrj_pt REF_energy=-35772.162790071525 al_round=4 source=cp2k_sp REF_stress="0.005310718700688529 0.011954017266488235 0.01254673411701996 -0.009120721674561632 -0.004400578859421814 0.002083466193153832" _cp2k_dir=cp2k_sp_round4 orig_idx=817 dE_per_atom_meV=-59.892721707365126 F_rmse_meV_A=84.16255662201662 pbc="T T T"
Pt       9.77346200       7.91325100       2.79137700       0.08023848      -0.23941497       0.03398896
Pt      13.19686900      11.70574000       7.39247700      -0.07838163      -0.23492377       0.05505761
Pt       5.54009200       7.39009000       6.41082300      -0.07996954       0.23555986      -0.03370871
Pt       2.11668500       3.59760100       1.80972300       0.07863000       0.23479522      -0.05766985
C        9.26094800       6.17198100       2.29237800      -0.00790563       0.27757632       0.08400772
C       13.70938300       9.96447000       6.89347800       0.00330850       0.16640284       0.05974473
C        6.05260600       9.13136000       6.90982200       0.00760018      -0.27804169      -0.08382363
C        1.60417100       5.33887100       2.30872200      -0.00299379      -0.16746779      -0.06001624
C       11.25628900       7.25539700       3.75535300      -0.18000860       0.15583663      -0.03489193
C       11.71404200      11.04788500       8.35645300       0.21352808       0.09367095      -0.10184397
C        4.05726500       8.04794400       5.44684700       0.18008831      -0.15551421       0.03495878
C        3.59951200       4.25545600       0.84574700      -0.21377850      -0.09371158       0.10208617
S       10.38983300      10.48187300       4.59137300      -0.19445512       0.08123298       0.27037157
S       12.58049800      14.27436200       9.19247300       2.69403295       4.91125684      -3.47603300
S        4.92372100       4.82146800       4.61082700       0.19445255      -0.08122630      -0.27043019
S        2.73305600       1.02897900       0.00972700      -2.69415070      -4.91006950       3.47600009
S        6.77830000       8.69763600       2.05721600      -0.22949309      -0.22603238       0.07015410
S        0.87847700      12.49012400       6.65831600       0.19421960      -0.15254356       0.06199907
S        8.53525400       6.60570500       7.14498400       0.22944064       0.22603084      -0.06999675
S       14.43507700       2.81321700       2.54388400      -0.19427360       0.15240524      -0.06243770
O        8.90527600       5.12447900       2.01152700       0.01879785      -0.21315527      -0.16386876
O       14.06505500       8.91696800       6.61262700      -0.02203178      -0.16620949       0.03697041
O        6.40827800      10.17886200       7.19067300      -0.01920254       0.26847615       0.16426831
O        1.24849900       6.38637300       2.58957300       0.02150574       0.19498734      -0.03696835
O       12.15459800       6.86439900       4.33847800       0.20848254      -0.13788364       0.15589577
O       10.81573300      10.65688700       8.93957800      -0.21976660      -0.14688096       0.10747521
O        3.15895600       8.43894200       4.86372200      -0.20893094       0.06362452      -0.15590914
O        4.49782100       4.64645400       0.26262200       0.22024071       0.07413468      -0.10779402
O       10.25444600       9.85300700       3.20939600      -0.00286267      -0.19269751      -0.77723477
O       12.71588500      13.64549500       7.81049600       0.11193813      -0.43431284      -0.52605803
O        5.05910800       5.45033400       5.99280400       0.00216795       0.16706053       0.77642333
O        2.59766900       1.65784600       1.39170400      -0.11342320       0.38656642       0.52694300
O       10.99880700       9.61296800       5.56172700       0.23676160      -0.46788373       0.50241982
O       11.97152400       5.82048000       0.96062700      -2.50042115      -4.65540274       4.57840282
O        4.31474700       5.69037300       3.64047300      -0.23678216       0.53503941      -0.50354031
O        3.34203000       9.48286100       8.24157300       2.49864092       4.71973946      -4.57725097
O       10.82452300       4.11825600       4.45101200       0.34807906       0.80737942      -0.14180766
O       12.14580800       7.91074500       9.05211200      -0.61463974       1.16412875      -0.67437059
O        4.48903100      11.18508500       4.75118800      -0.34867555      -0.75544879       0.14163334
O        3.16774600       7.39259600       0.15008800       0.61358919      -1.12517551       0.67432636
O        8.26033000       8.72255600       1.68092000       0.68862581       0.05142978      -0.14886226
O       14.71000100      12.51504400       6.28202000      -0.67953130       0.00130046      -0.38773730
O        7.05322400       6.58078500       7.52128000      -0.68819592      -0.14696581       0.14836449
O        0.60355300       2.78829700       2.92018000       0.67937190      -0.08953405       0.38836465
O        6.55499700       8.69930000       3.47275400      -0.15112740       0.05593590       0.77073091
O        1.10178000      12.49178800       8.07385400       0.16104312       0.03906226       0.90470648
O        8.75855700       6.60404100       5.72944600       0.15095051      -0.00927808      -0.76945462
O       14.21177400       2.81155300       1.12834600      -0.16100815      -0.02624582      -0.90565727
O        6.06533100       1.86385000       1.18875900      -0.36372268       0.48323219      -0.62433794
O        1.59144600       5.65633800       5.78985900       0.36199027       0.43806973      -0.45735198
O        9.24822300      13.43949100       8.01344100       0.36443076      -0.55276151       0.62368951
O       13.72210800       9.64700300       3.41234100      -0.36271738      -0.50025495       0.45824415
F        8.84720700      10.56999100       5.02498100      -0.15169973       0.12804660      -0.19609085
F       14.12312400       6.77750300       0.42388100       0.04210593      -0.55298880       0.29602090
F        6.46634700       4.73335000       4.17721900       0.18190968      -0.22436939       0.13966233
F        1.19043000       8.52583800       8.77831900      -0.07668264       0.53095958      -0.23490629
F        6.37383800       7.21321600       1.57269300       0.17140723      -0.20273356      -0.38960958
F        1.28293900      11.00570500       6.17379300      -0.22189959      -0.31664732       0.22842196
F        8.93971600       8.09012500       7.62950700      -0.15149352       0.13092521       0.36055919
F       14.03061500       4.29763600       3.02840700       0.20170974       0.13878610      -0.20004778
16
Lattice="6.499 0.0 0.0 0.0 6.499 0.0 0.0 0.0 6.662" Properties=species:S:1:pos:R:3:REF_forces:R:3 system_type=mptrj_pt REF_energy=-28398.022846837874 al_round=4 source=cp2k_sp REF_stress="-0.00738663347196212 -0.007386639941910425 -0.0032479391171423115 -3.4141435656588163e-09 -2.474803619236904e-09 9.183720394589153e-09" _cp2k_dir=cp2k_sp_round4 orig_idx=818 dE_per_atom_meV=-214.08807362331572 F_rmse_meV_A=87.15107154416972 pbc="T T T"
Pt       0.00000000       0.00000000       1.66561700      -0.00000154      -0.00000103      -0.00000000
Pt       0.00000000       0.00000000       4.99685000      -0.00000103      -0.00000154      -0.00000000
Pt       0.00000000       3.24969600       3.33123300      -0.00000154      -0.00000000       0.00000051
Pt       3.24969600       0.00000000       0.00000000       0.00000051      -0.00000154      -0.00000257
Pt       3.44011000       1.66684100       3.33123300       0.52550422       0.22813966       0.00000051
Pt       3.05928300       4.83255100       3.33123300      -0.52550422      -0.22813966       0.00000051
Pt       1.66684100       3.05928300       0.00000000       0.22813966      -0.52550370      -0.00000154
Pt       4.83255100       3.44011000       0.00000000      -0.22813966       0.52550422      -0.00000154
S        5.24344500       1.99906900       1.82057300       0.04905151       0.12341296       0.06066416
S        1.25594800       4.50032400       1.82057300      -0.04905048      -0.12341245       0.06066416
S        1.99906900       1.25594800       5.15180700       0.12341296      -0.04905048       0.06066621
S        4.50032400       5.24344500       5.15180700      -0.12341245       0.04905151       0.06066621
S        1.25594800       4.50032400       4.84189400      -0.04905048      -0.12341245      -0.06066313
S        5.24344500       1.99906900       4.84189400       0.04905100       0.12341296      -0.06066364
S        4.50032400       5.24344500       1.51066000      -0.12341193       0.04905151      -0.06066467
S        1.99906900       1.25594800       1.51066000       0.12341296      -0.04904997      -0.06066467
28
Lattice="5.08 0.0 0.0 0.0 8.786 0.0 0.0 0.0 9.631" Properties=species:S:1:pos:R:3:REF_forces:R:3 system_type=mptrj_pt REF_energy=-28891.015064200965 al_round=4 source=cp2k_sp REF_stress="-0.07420184063925127 -0.0750909312618274 -0.07654002652618888 6.458272510607592e-11 -3.659884735499145e-05 -1.779135619400127e-11" _cp2k_dir=cp2k_sp_round4 orig_idx=820 dE_per_atom_meV=-33.22533497157565 F_rmse_meV_A=143.21020635238213 pbc="T T T"
Pt       4.62527400       6.58933200       1.20478700      -0.76487445       0.00000000       0.60216115
Pt       2.08539100       2.19644400       3.61065500      -0.77078542      -0.00000000      -0.60010684
Pt       0.45449100       2.19644400       8.42609700       0.76487445      -0.00000000      -0.60216166
Pt       2.99437400       6.58933200       6.02023000       0.77078542       0.00000000       0.60010735
F        1.11212400       6.58933200       0.02402100      -1.01618386       0.00000514       0.60995879
F        3.65200700       2.19644400       4.79142100      -0.95793346       0.00000206      -1.23333000
F        3.96764100       2.19644400       9.60686300       1.01618592       0.00000154      -0.60996136
F        1.42775800       6.58933200       4.83946400       0.95793397       0.00000720       1.23333565
F        3.00381800       6.58933200       2.41559300       1.91744404       0.00000566      -1.06006643
F        0.46393600       2.19644400       2.39985000       1.92351030       0.00000103       1.52658028
F        2.07594700       2.19644400       7.21529200      -1.91745123       0.00000206       1.06007106
F        4.61583000       6.58933200       7.23103500      -1.92351544       0.00000360      -1.52658490
F        3.75945800       7.99687100       0.09084600       0.65858041      -1.46791438       0.78650823
F        1.21957600       0.78890400       4.72459700       0.64762134       1.47905034      -1.27859221
F        1.32030700       3.60398400       9.54003900      -0.65858452      -1.46791130      -0.78651183
F        3.86019000       5.18179200       4.90628800      -0.64762545       1.47904726       1.27859067
F        1.32030700       0.78890400       9.54003900      -0.65858555       1.46791078      -0.78651286
F        3.86019000       7.99687100       4.90628800      -0.64762288      -1.47904623       1.27859376
F        3.75945800       5.18179200       0.09084600       0.65858350       1.46791335       0.78651131
F        1.21957600       3.60398400       4.72459700       0.64762031      -1.47904983      -1.27859324
F        0.36762500       8.00094800       2.34736800      -0.97663001      -1.57252384      -0.98200516
F        2.90750800       0.78482800       2.46807500      -0.89257858       1.49344647       1.41869009
F        4.71214100       3.60806000       7.28351700       0.97663207      -1.57252281       0.98201287
F        2.17225800       5.17771500       7.16281000       0.89257961       1.49344492      -1.41869575
F        4.71214100       0.78482800       7.28351700       0.97663104       1.57252178       0.98201339
F        2.17225800       8.00094800       7.16281000       0.89258270      -1.49344544      -1.41869729
F        0.36762500       5.17771500       2.34736800      -0.97662744       1.57252075      -0.98200722
F        2.90750800       3.60806000       2.46807500      -0.89257961      -1.49344698       1.41869061
209
Lattice="12.859 0.0 0.0 0.0 13.791 0.0 0.0 0.0 49.295" Properties=species:S:1:pos:R:3:REF_forces:R:3 system_type=oc25_pt REF_energy=-180595.85679977958 al_round=4 source=cp2k_sp REF_stress="0.0012688984562297643 0.0009003757190981479 0.0008854411407425382 0.00032350874053753057 -0.0012968665976250907 0.0023088286125136437" _cp2k_dir=cp2k_sp_round4 orig_idx=825 dE_per_atom_meV=40.391000607814064 F_rmse_meV_A=21.076735848491033 pbc="T T T"
Pt       0.10584000       1.07178900      23.70084300       2.10362894       3.74558131       1.30919914
Pt       0.62667700      10.34302000      24.59977700       0.06646148       0.20716614       0.65304585
Pt       0.62667700       5.74612200      20.10425500       0.18991095      -0.85692098       0.49444323
Pt       0.62667700       3.44767300      22.45453400      -0.17578582       0.23117253      -0.48276425
Pt       0.62667700      12.64146800      22.24949800      -8.47420085      -6.43611139       2.49449167
Pt       1.49944400       8.04288000      25.85682600      -0.16281821       0.14325314      -0.18065755
Pt       3.77735200       2.26808600      23.77665300       0.26912870      -0.18613348       0.03567869
Pt       3.84153200      11.49224400      23.42463800      -0.31937475      -0.42632133       0.46500667
Pt       3.84153200       6.89534600      18.92911500       0.31348795       0.30315468       0.37962084
Pt       0.72783300      11.02869600      27.90547800      -0.09175702      -0.43203227       0.33873670
Pt       0.62667700       6.89534600      23.52715600      -0.07243518       0.01640107       0.45845498
Pt       0.62667700       2.29844900      19.03163300      -0.14594097      -0.22416165      -0.62734305
Pt       5.37238500      13.60352700      25.62095000      -0.47163909      -1.52545876       2.22764097
Pt       5.40946300       9.07525400      21.06094900      -0.49957618       0.02781420      -0.19029044
Pt       5.97999000       4.46039700      25.57105100       0.00529904       0.30076664       0.18017830
Pt       2.27360200       0.11854100      21.49783900       6.42231485       8.08636225      -2.48718768
Pt       2.27360200       9.31233600      21.29280400      -0.24205601      -0.02768307      -0.84992295
Pt       3.27677900       4.55316500      25.44987900      -0.05217437      -0.14225709       0.00671984
Pt       4.00733700      12.61323000      19.92286200       0.94040882      -0.51302254      -0.07500731
Pt       4.15162000       7.95584300      24.84597700      -0.11157714       0.17874568      -0.07635817
Pt       4.00733700       3.41943500      20.12789800       0.35150840      -0.06146480       0.50948316
Pt       3.88055900      10.28933800      26.87311800      -0.63368030      -0.14213214      -0.00415593
Pt       3.67572800       5.77436100      22.43089100      -0.04034318      -0.00263847      -0.05623209
Pt       3.67572800       1.17746300      17.93536800       0.47901969       1.27430156      -0.63758787
Pt       6.61364700       1.26929100      24.07226700       0.82988737       2.00217012      -0.65911366
Pt       7.05638800      10.34302000      24.59977700      -0.06760562       0.28104885       0.34888433
Pt       7.05638800       5.74612200      20.10425500       0.17637255      -0.84096780       0.44273937
Pt       7.05638800       3.44767300      22.45453400      -0.05033552      -0.14734222      -0.30478836
Pt       7.05638800      12.64146800      22.24949800      -8.42738980      -5.73846049       3.17733970
Pt       7.47513900       8.47409100      26.77177700      -0.86174231       0.23918615       0.45389230
Pt      10.18132600       2.24944000      23.70379100       0.37505867      -0.02874442      -0.03943250
Pt      10.27124400      11.49224400      23.42463800      -0.42819875      -0.56938112       0.45740289
Pt      10.27124400       6.89534600      18.92911500       0.26563560       0.29809475       0.30112865
Pt       6.54614700      11.00132400      27.88320800      -0.17070635       0.11565029      -0.16427756
Pt       7.05638800       6.89534600      23.52715600       0.21010080       0.45897075       0.17968207
Pt       7.05638800       2.29844900      19.03163300      -0.17005535      -0.20015423      -0.57797169
Pt      11.76611900      13.49951500      25.62614700      -0.83498535      -0.51209694       0.38990165
Pt      11.83917500       9.07525400      21.06094900      -0.40456723       0.10675581      -0.27337616
Pt      11.57396300       4.59758600      25.54097700      -0.14387483      -0.14852904      -0.02132422
Pt       8.70331400       0.11854100      21.49783900       6.11049657       7.99879715      -2.50741970
Pt       8.70331400       9.31233600      21.29280400      -0.33491141       0.03289315      -0.84426704
Pt       8.85051100       4.99074400      25.89663800       0.25843600      -0.15993086       0.10702321
Pt      10.43704900      12.61323000      19.92286200       0.90102466      -0.51820588      -0.10542604
Pt      10.51546700       8.04021000      24.73500100       0.11601487      -0.03319397      -0.06667180
Pt      10.43704900       3.41943500      20.12789800       0.33737761      -0.08289854       0.37879603
Pt       9.75168300      10.02895600      26.53463100      -0.05995247      -0.15144879      -0.13670454
Pt      10.10544000       5.77436100      22.43089100       0.04434690       0.10731888      -0.07222486
Pt      10.10544000       1.17746300      17.93536800       0.45331946       1.28908077      -0.69195128
S        5.06734800      11.29570400      25.33587700       0.04320842       0.12470314      -0.31000873
S        5.08954400       6.74683700      20.87357900      -0.01877985      -0.02228632      -0.40530513
S        5.08954400       2.14994000      16.37805600      -0.83168457      -0.88258471       1.38334822
S        2.30809700       0.41373800      23.93570000       0.04535323       0.39798983       0.72947704
S        2.59352100       9.55157500      23.61646300       0.62316552      -0.54584987       0.12047059
S        2.59352100       4.95467700      19.12094100       0.01736729       0.68838464      -0.56977399
S        5.80303500       2.14612100      20.97236200      -0.30361542      -0.46872808      -0.25529359
S        5.80303500      11.33991600      20.76732600      -0.35092938       0.72583482      -1.19051136
S        6.05642700       6.84026800      25.65465900       0.02369837       0.02450776       0.06449201
S        1.88003000       0.36159800      19.22719400       0.29905326      -1.19224788      -0.54885498
S        1.88003000       9.55539400      19.02215800       0.57002081      -0.78817276       0.47265981
S        1.87212100       4.96092100      23.73545600       0.02615738      -0.02911415      -0.12475353
S        2.59352100       2.44695800      21.68521000       0.54577737       0.43373897       0.14250752
S        2.59352100      11.64075300      21.48017400       1.11108432      -1.38666392      -0.11229191
S        3.07066100       6.55845600      26.46670600       0.08111934      -0.01564774      -0.01438532
S        5.08954400      13.43291300      23.23281200       0.26167096       0.03958471      -0.40586512
S        5.08954400       8.83601600      18.73728900      -0.34784200       0.39943582       0.14998737
S        5.08956400       4.12960600      23.47996500      -0.02109282       0.10530108      -0.20044065
S        1.97985200      11.60861400      26.12012700       0.19142687      -0.18881823       0.05218928
S        1.88003000       7.04767400      21.58642700       0.08770805      -0.02586993       0.11989826
S        1.88003000       2.45077700      17.09090400       0.33231562      -0.22117402       0.45138702
S        5.56338400      13.11457800      27.95431700       0.37499440      -0.22288329      -1.37704233
S        5.80303500       8.83219700      23.33159500      -0.18650115      -0.06969644       0.18595608
S        5.80303500       4.23529900      18.83607300      -0.26899398       0.39290676      -0.47579707
S       11.40764600      11.22180300      25.41533300       0.13274915      -0.66918878      -0.39174256
S       11.51925600       6.74683700      20.87357900      -0.03066349       0.01438429      -0.48129564
S       11.51925600       2.14994000      16.37805600      -0.81103656      -0.90231175       1.41694534
S        8.75168400       0.42090200      23.92665700      -0.54590335       0.22118482       0.78477942
S        9.02323200       9.55157500      23.61646300       0.11747063      -0.50264865      -0.26294571
S        9.02323200       4.95467700      19.12094100       0.04154440       0.69613806      -0.54613629
S       12.23274700       2.14612100      20.97236200      -0.33050608      -0.48924806      -0.45641764
S       12.23274700      11.33991600      20.76732600      -0.26658537       0.60170298      -1.11039835
S       12.35054900       6.82763700      25.63383000      -0.07276377      -0.09844292       0.01962215
S        8.30974200       0.36159800      19.22719400       0.35911732      -1.19408416      -0.56531775
S        8.30974200       9.55539400      19.02215800       0.57734229      -0.80985128       0.38000136
S        8.32241600       4.98894500      23.73190400       0.01949153      -0.00582921      -0.08869381
S        9.02323200       2.44695800      21.68521000       0.39136101       0.30112197      -0.04650612
S        9.02323200      11.64075300      21.48017400       1.24543321      -1.34210875       0.02301703
S        9.21819300       7.23221600      26.46447600       0.33142396      -0.44843025      -0.33035644
S       11.51925600      13.43291300      23.23281200      -1.63819187      -2.65532550      -0.97912398
S       11.51925600       8.83601600      18.73728900      -0.37394744       0.37810697       0.20639944
S       11.46993400       4.13196200      23.37724600      -0.03620011       0.04816396       0.06301774
S        8.15703500      11.61738900      26.29683900      -0.38325946      -0.13796386       0.62488250
S        8.30974200       7.04767400      21.58642700      -0.09508300       0.16757526       0.06526437
S        8.30974200       2.45077700      17.09090400       0.30617521      -0.23157157       0.47156195
S       12.06063600      12.79538700      27.91503700       0.17288459       1.76987350      -1.32418405
S       12.23274700       8.83219700      23.33159500      -0.10777243       0.10754617      -0.56973182
S       12.23274700       4.23529900      18.83607300      -0.28227270       0.39671765      -0.42138430
C        1.92851600       8.46852800      29.12924500      -0.36253946       0.69697418       0.19725094
C        0.53258600       8.61662800      29.69679400       0.22513507       0.18217141      -0.19339068
C        4.31989300      10.61607400      31.13584400      -0.33546111       0.69439074       0.20554377
C        2.81359300      10.72022700      31.30008300       0.31719394       0.10788041      -0.23863799
C       11.99162900       4.80685400      28.32776800       0.18715421       0.08565837       0.08660145
C       10.55813100       5.27351800      28.49902300       0.20526095       0.24591472       0.33424961
C        0.59742300       0.56010500      27.75437400       2.46104213      -0.80687600       2.58934225
C       12.11494300      13.78077900      31.62557600       0.01239837       1.03040412      -0.07106067
C        9.50059600       2.76860500      31.34322800       0.00955679       0.06477741      -0.34316362
C       10.32705600       4.07242700      31.38122600      -0.07333815      -0.22594599       0.25626958
C        8.95596700       2.62527300      29.89288900      -0.13483380      -0.24612350       0.22009982
C       10.99745100       4.61116400      32.65881100       0.16222120       0.17613344      -0.20770350
C        8.05276400       1.41256300      29.58467100       0.22896910       0.31828768       0.03614611
C       11.79173500       5.89300300      32.27766900      -0.07943989      -0.28163352       0.12741308
C        9.45086200       8.89712700      33.88935700      -0.13352562      -0.03504568      -0.25079571
C        7.98734100       8.43707200      33.71588000       0.16593078       0.00732507       0.21723766
C       10.05169600       9.54107700      32.62332700       0.18403238       0.00824039       0.18180272
C        7.37396000       7.91876000      35.03460700      -0.20460069      -0.01612699      -0.20412967
C       11.50563300      10.01856800      32.84644900      -0.27347489      -0.11191036      -0.00088035
C        5.87741300       7.55656800      34.90160200       0.28901053       0.03910134       0.04135157
C        4.92569100      11.95745900      35.07412600       0.02011271      -0.18569691       0.14831667
C        6.14537600      11.32303800      35.77042600       0.00281330       0.30879311      -0.00139559
C        3.67610800      11.05774400      35.01105400      -0.18883931       0.28018445      -0.07092131
C        7.29616800      12.33844900      35.93617500       0.03690767      -0.19440421       0.19585483
C        2.46013700      11.86634100      34.49585300       0.20390649      -0.12922880       0.13561490
C        8.51191600      11.79416300      36.71990100      -0.22468718       0.14902012      -0.05059314
C        5.72889100       3.85301300      32.85230400      -0.14311893      -0.08304201       0.18455843
C        4.31243800       3.24389700      32.82662200       0.09049050       0.05992008      -0.12626174
C        6.34272500       3.82168700      34.26909000       0.16924082       0.06231583      -0.16710012
C        3.68339300       3.19450600      31.42007100      -0.16343578      -0.07926917       0.11760227
C        7.79037800       4.35434600      34.31542300      -0.31167892      -0.11376310       0.09137598
C        2.28833000       2.52835200      31.42284700       0.25197944       0.13201484       0.05846021
H        1.45238800      11.81940500      29.01534700      -0.00040006       0.03213056       0.03906997
H        2.33364300       9.81800500      31.73895600      -0.09206144       0.07616637       0.00318354
H        1.84114500       7.61789300      28.43478100      -0.00043657      -0.35686606      -0.27691349
H        0.14250100       7.82804900      30.36784000       0.06075723       0.05002390      -0.10189540
H        4.42818800      12.35997800      30.24721900       0.01658670      -0.05067336       0.02771135
H        4.76114300      10.17375600      32.04100700       0.04005111      -0.00282410       0.04446775
H        4.47680500       9.89547800      30.31599000       0.13672253      -0.21487482      -0.22291518
H        2.62401000       8.12431900      29.91052600       0.08565014      -0.03451398       0.14486368
H        0.05419200       6.44761300      27.90014500      -0.07314789       0.03525034      -0.06317201
H       12.17483600       3.89782500      28.92708100       0.01900920       0.11671215       0.07122779
H       12.14966800       4.34740100      27.25812700      -0.01846926      -0.03361666       0.14945772
H        9.79325500       4.57444000      28.04615600      -0.10131021       0.01392150      -0.06153525
H       12.74332800       2.29651100      27.32111000       0.03388251       0.10705457      -0.32917168
H        0.90751600       0.07448000      28.69342500       1.08901499       1.22483301       0.08620550
H        1.33319300       0.26306800      26.98511200      -0.72008532      -0.04473668      -0.24663206
H       12.10090900      12.68230300      31.46876600      -0.01053638      -1.02487779      -0.12869915
H       10.11242900       1.89261000      31.61780700       0.02781625       0.03700743      -0.02358267
H        8.65444600       2.80690600      32.04088000       0.03398690      -0.03878612       0.03430006
H        9.67822100       4.87276400      31.00754900       0.01794424       0.03367271      -0.03867968
H       11.12617600       3.94953400      30.63939000       0.01584777       0.05383222      -0.01684484
H        8.39197200       3.54263500      29.65540400       0.10949404      -0.02049889      -0.03510585
H        9.81111400       2.58075000      29.19959500      -0.01049781       0.05908858       0.00040418
H       10.24441800       4.87688800      33.40830700      -0.01420895      -0.09422940       0.05310357
H       11.66999500       3.86987400      33.11599400      -0.10244767       0.00230782      -0.02686906
H        8.59417200       0.47256900      29.74862800      -0.10389829      -0.08870872       0.00635320
H        7.75766700       1.44965800      28.52196100      -0.04861648      -0.14503903       0.15237233
H        7.13986500       1.41235000      30.19907600       0.07673818      -0.06933392      -0.04508430
H       12.69226600       5.64030900      31.69618800      -0.03881955       0.02773346       0.03629112
H       11.16586200       6.53946100      31.64565300       0.03963664       0.07743443       0.04714375
H       12.09707300       6.47003800      33.16084300       0.05315139      -0.01663247      -0.01156225
H        9.50325700       9.62311900      34.71412300       0.03546271      -0.04314466       0.03615794
H       10.07094100       8.03774300      34.19404700      -0.02780751       0.07982710       0.01203945
H        7.93791900       7.64824800      32.94704800      -0.05604645       0.08100672       0.00922358
H        7.38640800       9.27897100      33.33251300       0.00605495      -0.07600953      -0.00079344
H       10.02073000       8.82311100      31.78935500      -0.04268957       0.05439375       0.00845173
H        9.43141500      10.39935500      32.31920300       0.00782335      -0.11877161      -0.03900929
H        7.93816100       7.04009800      35.37910600      -0.00312698       0.05555126       0.00489127
H        7.49254700       8.68460500      35.81576500       0.04054013      -0.05996019      -0.01743774
H       11.54356300      10.82554300      33.59530300       0.06200936      -0.07372382      -0.05704558
H       11.94145200      10.39501600      31.91141900       0.07965073       0.03365163       0.02299286
H       12.13673400       9.19380400      33.21428800      -0.00042629       0.08643638      -0.04309581
H        5.28448500       8.44369600      34.63324700      -0.00364017      -0.06116655       0.00425312
H        5.71998200       6.79604600      34.12218800      -0.01877265       0.03287104       0.04935336
H        5.47958100       7.16288800      35.84913600      -0.03000015       0.00488253      -0.08777233
H        4.65631200      12.89076200      35.59615100       0.04099779      -0.04295080      -0.06828131
H        5.20040900      12.24750400      34.04750800      -0.01433287       0.09260240       0.04843393
H        6.50325700      10.47198800      35.17810100      -0.02781008      -0.07810086       0.06889117
H        5.85511700      10.92740000      36.75820100       0.02449233      -0.00456371      -0.12619644
H        3.86216700      10.19631300      34.35137700       0.02900205      -0.00481413       0.07641319
H        3.44928400      10.64247600      36.00620500       0.08284455      -0.02435658      -0.11316609
H        7.61761300      12.65885100      34.93836200       0.03593323       0.14391031      -0.05976221
H        6.91084900      13.23736800      36.44333700       0.01915061      -0.04259958      -0.07391254
H        2.12446600      12.57725000      35.26813000      -0.01741563      -0.05055252      -0.14251472
H        1.60819500      11.22278100      34.22805400       0.01539011       0.08986572       0.01795864
H        2.74925100      12.45263300      33.61084100      -0.15235536      -0.02753755       0.00703762
H        8.20147700      11.36999600      37.68834600       0.07628001       0.05479073      -0.09143255
H        9.02962900      11.00401800      36.15942100      -0.00657277      -0.03405221       0.04030719
H        9.24205800      12.59543500      36.91737100      -0.03535781      -0.11494580       0.00969563
H        6.37447900       3.30165200      32.14939700       0.00269400       0.07420616       0.02458592
H        5.69307100       4.89399900      32.48772500       0.06851528      -0.10147219      -0.00233302
H        3.65709100       3.81931900      33.50283300       0.04380235      -0.12540094      -0.03865140
H        4.35901000       2.22094300      33.23654700      -0.06819903       0.09084428       0.00385254
H        5.70687200       4.41006300      34.94764400       0.00411788      -0.07015975      -0.01246677
H        6.33002900       2.78521600      34.64322200      -0.07908303       0.10185837       0.03086867
H        3.60432300       4.21600200      31.01389500       0.06759379      -0.10295778      -0.01599792
H        4.35153000       2.64034800      30.74171400      -0.01391481       0.09663235       0.00918552
H        8.47896000       3.64110100      33.85016900       0.02952089       0.02789441       0.00350081
H        8.12889900       4.51533300      35.34951200       0.00909348       0.01561894      -0.05547258
H        7.87956900       5.30629500      33.77382600       0.03273889      -0.00852526       0.03232648
H        2.35420900       1.49964300      31.81168700      -0.09976498       0.05843707      -0.05473776
H        1.59044700       3.08436400      32.06980500      -0.00256442      -0.10383247      -0.08767257
H        1.86419300       2.48840000      30.40947600      -0.07987390      -0.03671638       0.02856187
O        2.36783200       9.64255400      28.49113800       0.24149140      -0.20232475      -0.12271362
O       12.62649100       9.55529900      29.38955900       0.36345734       0.02938000       0.02640369
O        4.96641100      11.86505200      30.89624100      -0.13838707      -0.46167040      -0.02099614
O        2.15364600      11.68959700      30.93060200       0.02772009      -0.03951632       0.19380617
O        0.12082000       5.75998500      28.59808300      -0.07838214      -0.38694746       0.10756828
O       10.24895300       6.29638000      29.07970700       0.13309779      -0.04493312      -0.23504307
O        0.56512000       1.97472700      27.94539900      -1.25982830      -1.91703729      -0.17493273
O       11.12600900       0.68952600      27.14914500      -1.03421450       0.90699887       0.33865699
F        6.15874300       8.89908600      28.63755800      -0.40618959       0.69825151      -0.44961039
90
Lattice="8.346 0.0 0.0 0.0 9.237 0.0 0.0 0.0 44.174" Properties=species:S:1:pos:R:3:REF_forces:R:3 system_type=oc25_pt REF_energy=-125311.76662238152 al_round=4 source=cp2k_sp REF_stress="0.0023907318945583875 -0.01592547213742477 -0.010170453966375845 0.0027876003292780513 0.0008118796930913175 -0.0016561469565221484" _cp2k_dir=cp2k_sp_round4 orig_idx=827 dE_per_atom_meV=-18.17917301329241 F_rmse_meV_A=142.9448401364208 pbc="T T T"
Pt       2.05617200       2.02066300      18.71757800      -0.59093520       0.59226394       0.56148989
Pt       3.33650900       2.41880100      21.03795500       0.16838413       0.85675283      -0.44237119
Pt       1.95330600       4.56479300      20.14112100       0.89914518       0.33313992       0.61464643
Pt       2.22881100       3.75266000      15.18375100      -0.18982610      -0.19524959       1.49909621
Pt       3.50368200       4.13754800      17.63024700      -0.03214753       0.09082063      -0.26485450
Pt       0.78130100       1.63577500      16.27108200       0.11707262       0.46024601       0.14973540
Pt       3.44392200       6.63932200      18.85349500      -0.14231057      -0.26885462       1.17678372
Pt       4.76289300       7.09446500      21.29485700      -0.37928814       0.27131620      -1.05249658
Pt       3.35340800       9.20377600      20.17575100       1.03986835      -0.45819839       0.78461178
Pt       3.61656100       8.37131900      15.31966700      -0.11411482      -0.36472541       1.33786386
Pt       4.89143200       8.75620700      17.76616300       0.07824279       0.07062615      -0.52131177
Pt       2.16905100       6.25443400      16.40699900       0.02742185      -0.10732094      -0.30615208
Pt       4.83831200       2.02066300      18.85349500       0.09264045       0.20763871       0.26091711
Pt       6.14252400       2.44160100      21.16369400      -0.00801361       0.91433732      -0.67930145
Pt       4.72664600       4.62180200      20.24405300       0.54964945      -0.30698151       0.03649424
Pt       5.01095100       3.75266000      15.31966700      -0.24550180       0.05240063       1.41515740
Pt       6.28582200       4.13754800      17.76616300      -0.15890293       0.06868394      -0.69375310
Pt       3.56344100       1.63577500      16.40699900      -0.01811497      -0.37416959      -0.01270382
Pt       6.22606200       6.63932200      18.98941100      -0.20025244       0.24523801       0.98074223
Pt       7.53852500       7.04530200      21.39912900      -0.13485077       0.41426954      -0.96029990
Pt       6.21744700       9.22477200      20.37980700      -0.17738968      -0.67239855      -0.11248217
Pt       6.39870100       8.37131900      15.45558400      -0.27833942      -0.21971878       1.42576474
Pt       7.67357200       8.75620700      17.90208000       0.04864888      -0.05573124      -0.89783495
Pt       4.95119100       6.25443400      16.54291500       0.01022476      -0.39408175      -0.22615734
Pt       7.62045200       2.02066300      18.98941100       0.81828912       0.35219231       0.38795070
Pt       9.03189000       2.35051800      21.39168000      -0.36614826       0.76429544      -0.69106424
Pt       7.60238400       4.62440800      20.36458700      -0.57692165      -0.38258944      -0.00904771
Pt       7.79309100       3.75266000      15.45558400       0.02392206      -0.09387304       1.57538959
Pt       9.06796200       4.13754800      17.90208000      -0.52101198      -0.00381089      -1.65841360
Pt       6.34558200       1.63577500      16.54291500       0.23992251      -0.22762955       0.14001509
Pt       9.00820300       6.63932200      19.12532800       0.34609571       0.67175012       0.10437805
Pt      10.23026100       7.11078600      21.51426700       0.54890537      -0.14251369      -1.50489765
Pt       8.94909900       9.21567400      20.50193100      -0.33764809      -0.72132510      -0.25760810
Pt       9.18084100       8.37131900      15.59150000      -0.08814308      -0.39060356       1.19851366
Pt      10.45571200       8.75620700      18.03799600      -1.17802299      -0.99477017      -2.17967395
Pt       7.73333200       6.25443400      16.67883200       0.27709244      -0.27323270      -0.09877356
C        4.35751500       3.20668100      23.87895500      -1.84951806      -0.36506120       0.53765216
C        7.61852300       3.51142500      24.01950700       1.96517657       0.00388442      -1.35744641
C        3.44488500       6.82554100      24.19438700       1.24771378       1.28131090      -1.19406051
H        4.06976200       3.39679000      24.90505000      -0.41372910      -0.43102131       0.51820280
H        4.93228700       3.99862300      23.60738900       2.15068425       2.44841956      -0.88789352
H        3.50772600       3.26512600      23.15263400      -0.01250636      -0.66580933       0.35578877
H        4.52083200       1.23511200      23.74081000       0.63865745       1.23905276       0.13977443
H        7.25941600       3.55878400      25.01089100      -0.58369034       0.44347573       1.37274191
H        8.51589400       4.25461900      23.85108800      -1.64516162      -1.44710953       0.00062169
H        6.83989600       3.71542500      23.26354400       0.35034317       0.26519646       0.14513827
H        7.34487000       1.54794500      23.65601300       0.82883425       0.50471170       0.02347726
H        3.57558400       6.73085100      25.25170800      -0.07850144      -0.91298029       0.78106829
H        2.60606100       7.47701500      24.01268300      -0.93305032       0.24087587      -0.15826067
H        3.43039000       5.96959600      23.51949700      -0.35863447      -0.62446855       0.67506993
H        5.40505400       7.07295900      23.82522800       0.40978502      -0.13798597       1.29984341
H        9.86784800       9.14865500      29.58515700       0.63258913      -0.27820521       0.25474852
H       10.02084100       7.71162800      29.91613200       0.10189643      -1.07975388      -0.19021897
H        5.99468100       3.06923200      27.59117500       0.31637787      -0.19624615       0.12380788
H        6.36579600       4.28150300      28.56154700       0.68406467       0.11385720       0.20377588
H        8.33083800       6.12319300      26.27400300       3.57066041      -2.61496586      -1.81840411
H        5.53590700       6.55868400      26.05278400       1.91964439      -0.58428992      -1.84106992
H       10.96879000       8.82936300      26.16785900       6.21305686      -0.16525201      -3.89917491
H       10.31757300       8.15235700      27.29018100      -0.28844437       0.19471377      -0.40364163
H        8.03474200       6.25865400      28.42930500       4.32726259      -2.94418948      -2.75189511
H        7.46628900       7.43754700      28.71923500      -0.21953880       8.33504245      -1.46186509
H        5.12574800       0.91316200      27.38664500      -0.54270644      -1.05579788       0.83407621
H        6.25677200       0.93402100      26.36681200       0.17782162      -0.13739822      -0.12021708
H        5.08501700       6.21475200      28.66616500      -0.37342757      -0.76170017      -0.43094623
H        4.70632800       7.32650300      27.89657500       0.26011493       1.93925316      -0.49708324
H        2.43386200       3.50964600      26.59022000      -0.60441858      -0.24790836      -0.08582343
H        1.91931700       2.22320300      27.27321500      -0.82700105       1.68827079      -1.90156593
H        1.77975300       5.24548000      27.49424500      -1.08033855      -0.86600623      -1.08875686
H        2.90850800       6.11080700      27.92282300      -0.93664884      -0.11109583       1.16204770
H        9.04611900       5.06432600      25.08469700       0.28727092       0.63550476       1.59314820
H        5.89181600       0.77690000      23.31844400       0.96642941       0.16914518      -1.68020267
H        4.05208200       2.79114300      28.72637500       1.56295779       0.14698535      -0.35819224
H        2.70124400       3.23919400      29.24688300      -0.14344186      -1.08408825      -0.30291146
H        3.03352900       0.72888200      28.60658700       0.50555194       0.67108934       0.07287535
H        4.86362000       8.74943900      29.09255200       1.75761962       0.33818391       0.01178285
O        5.18395100       2.01347400      23.77101400      -1.95475023      -2.33088722       0.81370382
O        8.14159600       2.13904600      23.82830800      -0.26022137       0.31329769      -0.46863964
O        4.59479400       7.64537200      23.71595900      -0.41010230       0.00157249      -1.46508565
O       10.58022500       8.46763000      29.69571300      -0.82867021       1.73867779      -0.24103734
O        5.65902400       3.84555500      28.08898800      -1.34870569      -0.17688934      -0.09772044
O        6.22208400       6.41731800      25.27528900      -1.23780269       0.43256757       1.51426469
O       10.22125900       8.86298900      26.60733700      -5.78027229       0.04508481       4.55458464
O        7.37832200       6.60471800      28.91468400      -4.19547555      -5.59039270       4.49766761
O        5.87698300       1.42084000      27.10921500       0.90060043       1.82337148      -1.85849841
O        4.43268400       6.41552100      27.95019800       1.08220157      -0.40912836       0.61099392
O        1.62166000       2.95298700      26.59527200       1.29335446      -1.75442323       1.49853365
O        1.95365100       5.86295500      28.19357200       1.45650331       0.84190368       1.23581471
O        9.35571100       5.45577300      25.96553200      -4.49900818       2.61967870      -0.77807347
O        3.17197500       2.42701300      28.88802500      -0.98300635       0.06701324       0.49560177
O        5.78589300       8.98716700      28.72979200      -2.96280427      -1.13008066       0.73437911
209
Lattice="12.859 0.0 0.0 0.0 13.791 0.0 0.0 0.0 49.295" Properties=species:S:1:pos:R:3:REF_forces:R:3 system_type=oc25_pt REF_energy=-180595.66234557546 al_round=4 source=cp2k_sp REF_stress="0.0009113236914363839 0.00045723687609402504 0.00037326796776578135 0.00030973263408171764 -0.0012068218094235421 0.0027364608487605744" _cp2k_dir=cp2k_sp_round4 orig_idx=835 dE_per_atom_meV=40.35935672816072 F_rmse_meV_A=25.100593060905318 pbc="T T T"
Pt       0.08289400       1.06673200      23.68980600       2.45704664       4.05903378       1.51287784
Pt       0.62667700      10.34302000      24.59977700       0.01319953       0.26117062       0.62648996
Pt       0.62667700       5.74612200      20.10425500       0.19074553      -0.85537729       0.49323995
Pt       0.62667700       3.44767300      22.45453400      -0.18667085       0.23506775      -0.40932840
Pt       0.62667700      12.64146800      22.24949800      -8.42416358      -6.47345358       2.48299473
Pt       1.51855400       8.06592400      25.84869400      -0.28087967      -0.24234912      -0.10769581
Pt       3.78040700       2.27054200      23.79833000       0.14752477      -0.31928733      -0.12002939
Pt       3.84153200      11.49224400      23.42463800      -0.32270947      -0.47354942       0.56621918
Pt       3.84153200       6.89534600      18.92911500       0.31205276       0.30280656       0.37517077
Pt       0.74557000      11.00025400      27.91005100      -0.37165659       0.03447438      -0.02102494
Pt       0.62667700       6.89534600      23.52715600      -0.03520509       0.02929567       0.56225248
Pt       0.62667700       2.29844900      19.03163300      -0.14789964      -0.22441978      -0.62384532
Pt       5.36958900      13.58768600      25.63229100      -0.31949199      -1.09784108       1.99462599
Pt       5.40946300       9.07525400      21.06094900      -0.48638282       0.03433811      -0.18671147
Pt       6.01589800       4.44293600      25.56294300      -0.14761938       0.30705402       0.22290849
Pt       2.27360200       0.11854100      21.49783900       6.41250454       8.10218996      -2.47219044
Pt       2.27360200       9.31233600      21.29280400      -0.23538605      -0.04058332      -0.84724643
Pt       3.30192900       4.54551200      25.44874300      -0.15804367      -0.15198358      -0.05047539
Pt       4.00733700      12.61323000      19.92286200       0.94542247      -0.51364063      -0.07408840
Pt       4.12601600       7.95783300      24.85706900       0.25809095       0.10138015      -0.23506775
Pt       4.00733700       3.41943500      20.12789800       0.34699817      -0.07189011       0.51701546
Pt       3.89560600      10.25184300      26.91819500      -0.46938577       0.35161227      -0.69313707
Pt       3.67572800       5.77436100      22.43089100      -0.04447237      -0.02661966      -0.04516863
Pt       3.67572800       1.17746300      17.93536800       0.47834401       1.27538708      -0.63558806
Pt       6.60738500       1.28871100      24.07010900       0.65258871       1.71319610      -0.40194522
Pt       7.05638800      10.34302000      24.59977700      -0.02729072       0.40790298       0.30575767
Pt       7.05638800       5.74612200      20.10425500       0.17866957      -0.84926578       0.45910753
Pt       7.05638800       3.44767300      22.45453400      -0.12701045      -0.11596705      -0.31859673
Pt       7.05638800      12.64146800      22.24949800      -8.40855955      -5.75635588       3.20856112
Pt       7.46965400       8.52790700      26.76404600      -0.03117051      -0.52514889       0.22094520
Pt      10.19744200       2.25236800      23.70327100       0.16032064      -0.23370301      -0.02624171
Pt      10.27124400      11.49224400      23.42463800      -0.45106152      -0.60077327       0.53138741
Pt      10.27124400       6.89534600      18.92911500       0.26767500       0.30010741       0.29822074
Pt       6.50580700      10.97985800      27.87939700       0.05000950       0.22089840      -0.26336840
Pt       7.05638800       6.89534600      23.52715600       0.18268564       0.41013212       0.20689772
Pt       7.05638800       2.29844900      19.03163300      -0.17270307      -0.20361853      -0.57779994
Pt      11.75150600      13.48548900      25.64767600      -0.75350915      -0.64702536       0.04358843
Pt      11.83917500       9.07525400      21.06094900      -0.41322259       0.10416362      -0.28003635
Pt      11.55911500       4.59725400      25.52490400      -0.13922062      -0.02099152       0.45202157
Pt       8.70331400       0.11854100      21.49783900       6.11044875       8.01656913      -2.48132865
Pt       8.70331400       9.31233600      21.29280400      -0.34410156       0.04115102      -0.84867185
Pt       8.82220000       4.99101700      25.92000300       0.42655016      -0.26098242       0.03101059
Pt      10.43704900      12.61323000      19.92286200       0.90112287      -0.51625801      -0.11275317
Pt      10.53627900       8.04216600      24.72504800      -0.21069164      -0.06018902      -0.00103050
Pt      10.43704900       3.41943500      20.12789800       0.32891868      -0.08477956       0.37165248
Pt       9.74372800      10.01103100      26.54853900      -0.11985147       0.02320061      -0.25159583
Pt      10.10544000       5.77436100      22.43089100       0.04658325      -0.00356201       0.03558921
Pt      10.10544000       1.17746300      17.93536800       0.45318628       1.29259856      -0.68755726
S        5.06667500      11.30640100      25.34879000      -0.08003690      -0.38065134      -0.00881477
S        5.08954400       6.74683700      20.87357900      -0.01806971      -0.03189711      -0.39578588
S        5.08954400       2.14994000      16.37805600      -0.83230627      -0.88304699       1.38327160
S        2.30399900       0.42112800      23.93400900      -0.06292775       0.33947049       0.76122811
S        2.59352100       9.55157500      23.61646300       0.62658817      -0.49772293       0.13740285
S        2.59352100       4.95467700      19.12094100       0.01884876       0.68990776      -0.56629014
S        5.80303500       2.14612100      20.97236200      -0.31287551      -0.47098757      -0.26542837
S        5.80303500      11.33991600      20.76732600      -0.35121992       0.73122025      -1.19023471
S        6.04162900       6.82195900      25.64366200       0.20390495       0.25945261       0.13266173
S        1.88003000       0.36159800      19.22719400       0.30248311      -1.19209824      -0.54946741
S        1.88003000       9.55539400      19.02215800       0.56628346      -0.78441278       0.47570143
S        1.87680600       4.96100200      23.73787800       0.00843682      -0.05534763      -0.08703956
S        2.59352100       2.44695800      21.68521000       0.56469760       0.43147537       0.16157225
S        2.59352100      11.64075300      21.48017400       1.11874518      -1.38532386      -0.09898696
S        3.07830900       6.54094200      26.47544100      -0.09028069       0.22503736      -0.03278465
S        5.08954400      13.43291300      23.23281200       0.31440635       0.06934471      -0.29483048
S        5.08954400       8.83601600      18.73728900      -0.34784097       0.39810450       0.15325884
S        5.07698400       4.11709300      23.48989800       0.15997045       0.28060713      -0.27705233
S        1.98454100      11.60684100      26.10082200       0.11455551      -0.32351371       0.39194825
S        1.88003000       7.04767400      21.58642700       0.08738769      -0.03479680       0.11959024
S        1.88003000       2.45077700      17.09090400       0.33497054      -0.22061507       0.44771548
S        5.55790100      13.12676400      27.98258800       0.37492395      -0.42941745      -1.47004326
S        5.80303500       8.83219700      23.33159500      -0.26805809      -0.08647649       0.30682570
S        5.80303500       4.23529900      18.83607300      -0.26468892       0.39520070      -0.47987176
S       11.39056000      11.20194300      25.42778000       0.30291814      -0.57195325      -0.47500106
S       11.51925600       6.74683700      20.87357900      -0.05602948      -0.00778736      -0.45779781
S       11.51925600       2.14994000      16.37805600      -0.81010170      -0.90396549       1.41709807
S        8.74441400       0.42600300      23.93314200      -0.53766451       0.26292206       0.72736514
S        9.02323200       9.55157500      23.61646300       0.13642274      -0.53778175      -0.27161701
S        9.02323200       4.95467700      19.12094100       0.04354781       0.69641934      -0.54361712
S       12.23274700       2.14612100      20.97236200      -0.32509237      -0.45723268      -0.46149454
S       12.23274700      11.33991600      20.76732600      -0.27670317       0.59980602      -1.10159900
S       12.33577900       6.84183900      25.63169300       0.29098719      -0.17114395       0.06050372
S        8.30974200       0.36159800      19.22719400       0.36477735      -1.19411553      -0.55872956
S        8.30974200       9.55539400      19.02215800       0.57800666      -0.81377221       0.37769611
S        8.31692300       4.97845500      23.74321500       0.09991051       0.12190732      -0.17946044
S        9.02323200       2.44695800      21.68521000       0.42653576       0.31620046      -0.00964884
S        9.02323200      11.64075300      21.48017400       1.25560758      -1.33462633       0.03081107
S        9.28294200       7.20479000      26.48067400      -0.84045512       0.44770108      -0.19882548
S       11.51925600      13.43291300      23.23281200      -1.96829737      -3.01640200      -1.00596424
S       11.51925600       8.83601600      18.73728900      -0.37049137       0.37832089       0.20327812
S       11.46848300       4.12016200      23.39565500       0.05593384       0.21997538      -0.48118971
S        8.17726100      11.64439200      26.28499500      -0.58578168      -0.48535849       0.77419264
S        8.30974200       7.04767400      21.58642700      -0.06480157       0.15735667       0.10644676
S        8.30974200       2.45077700      17.09090400       0.30465312      -0.22992966       0.47297400
S       12.06288100      12.80374800      27.90781900       0.27469103       1.49008912      -1.19891115
S       12.23274700       8.83219700      23.33159500      -0.00539572       0.17470236      -0.67959558
S       12.23274700       4.23529900      18.83607300      -0.28103548       0.39726735      -0.41766288
C        1.91585500       8.47331500      29.14389700       0.29428952      -0.03328859      -0.13008240
C        0.52776900       8.61970400      29.70611200       0.07850196       0.05061114      -0.23990348
C        4.32017100      10.63532500      31.14351100      -0.09738260      -0.32159515      -0.16401891
C        2.82792700      10.72111800      31.28629100      -0.31919477      -0.07215442       0.26665016
C       11.98933600       4.81364600      28.31494700      -0.04103738       0.11730865       0.22594651
C       10.55053400       5.27290800      28.49978800       0.08560951       0.12285040       0.13301192
C        0.59591600       0.56384800      27.75902000       2.71966428      -1.14939324       2.57127870
C       12.11653200      13.78552900      31.62512600       0.00585903       0.70401901      -0.09850463
C        9.49859700       2.76672500      31.33507200       0.03569000      -0.04950197       0.19461144
C       10.32616500       4.06477700      31.38541300      -0.02028086       0.16048981      -0.15271377
C        8.95166100       2.61792200      29.90040700       0.08615973       0.24082651      -0.10877310
C       11.00047300       4.61813600      32.65411800       0.01188621      -0.20840233       0.18809164
C        8.06023900       1.42687400      29.58536400      -0.10393891      -0.28343689       0.10615263
C       11.79047500       5.89143500      32.27731500       0.03881081       0.01196849      -0.01042222
C        9.44715700       8.89835000      33.88386100       0.12995950      -0.06948304       0.22470826
C        7.99237000       8.43599700      33.72315300      -0.14300734       0.03396068      -0.24085222
C       10.05585800       9.54171200      32.62939400      -0.16757475       0.01965043      -0.20470765
C        7.36802300       7.91922800      35.03061800       0.17145146      -0.00824090       0.14870542
C       11.49917900      10.01711700      32.84699900       0.09883990      -0.01477510       0.09339533
C        5.88220400       7.55808900      34.90466700      -0.05267882      -0.02958671      -0.03281859
C        4.92575800      11.95022100      35.07898300       0.00092611       0.27507001      -0.10760530
C        6.15000900      11.33136900      35.76847900      -0.12497311      -0.25253943       0.12649777
C        3.67179100      11.06040600      35.00770200       0.08060100      -0.19069719       0.13751238
C        7.29836000      12.33235600      35.94061500      -0.05274773       0.32261279      -0.10635472
C        2.46684900      11.86059700      34.49941800      -0.08082366       0.11417910      -0.03485799
C        8.50724400      11.79604300      36.71732300       0.05002801      -0.06778303       0.09810970
C        5.72533900       3.85144600      32.85830700       0.10008123       0.10641951      -0.22539526
C        4.31591300       3.24687300      32.82232900      -0.14155415      -0.13196188       0.28244599
C        6.34893700       3.82405900      34.26412600      -0.18656389      -0.13264579       0.17780208
C        3.67913600       3.19176900      31.42552200       0.17676181       0.13698324      -0.23618670
C        7.78577400       4.35133900      34.31657000       0.05873788       0.05877234      -0.00195198
C        2.29393900       2.53044200      31.42419900      -0.06925113      -0.04229619       0.11443621
H        1.44743600      11.79934800      29.02057900       0.03757256       0.09164235       0.09901885
H        2.33122900       9.82541700      31.74280300       0.18316695       0.16359879      -0.16039571
H        1.85026500       7.61001800      28.41902200      -0.10167531       0.17767507       0.23864364
H        0.13590300       7.82464500      30.37290500       0.09549284       0.14284845      -0.12765014
H        4.42684400      12.35944600      30.24441000       0.10500438      -0.08149266       0.10253303
H        4.76327900      10.16443100      32.04243600      -0.05668923       0.16791362      -0.09855091
H        4.46693200       9.88769700      30.31363500       0.11881891       0.20209901       0.18179038
H        2.63847300       8.10934900      29.91698800      -0.31269091       0.19260855      -0.18303788
H        0.05408200       6.44332200      27.90065100      -0.00598501       0.00700420       0.04872652
H       12.17153700       3.91598900      28.91054400       0.02226627      -0.22658414       0.30117339
H       12.15379400       4.35140800      27.26527400      -0.05078700      -0.05791102      -0.14902321
H        9.78273200       4.55183900      28.03115500       0.15654163       0.36580064       0.17932520
H       12.74285400       2.29647100      27.32320400       0.08650220       0.08560283      -0.27300952
H        0.90851400       0.06622100      28.70121000       1.04787168       1.35655424      -0.10322466
H        1.33321200       0.26522500      26.98194000      -0.83861575      -0.00678514      -0.07162991
H       12.10465900      12.67631500      31.47042300      -0.00641850      -0.68680701      -0.08492817
H       10.11373700       1.89318500      31.62453900      -0.04839125       0.07814817      -0.09851440
H        8.65552900       2.80956000      32.04193200       0.08790294      -0.06564387      -0.04288909
H        9.67791100       4.87498300      31.00855700       0.13221488      -0.15610197       0.02291830
H       11.12723000       3.94714200      30.63559400      -0.10340926       0.06337616       0.10494678
H        8.38774800       3.53741100      29.65455300       0.17548140      -0.06430689       0.02287254
H        9.80421400       2.57565800      29.20042600      -0.01516025       0.08441241       0.04545454
H       10.24322000       4.87967100      33.41061000       0.12065057      -0.11301131      -0.09611401
H       11.67030100       3.87084900      33.11957800      -0.17622342       0.13291319      -0.09900188
H        8.58745300       0.47733300      29.74611000      -0.05522627      -0.06697621       0.01885853
H        7.76210600       1.45115600      28.52678800      -0.04704039      -0.06342398       0.02220045
H        7.14221200       1.41119800      30.19181100       0.05986917      -0.01633165      -0.01167230
H       12.69625100       5.64198700      31.69423100      -0.14969015       0.05256107       0.10470818
H       11.16023500       6.53663600      31.63841800       0.15665784       0.00574025       0.15340437
H       12.09644600       6.47596600      33.16235300      -0.01326638      -0.11674969      -0.15348664
H        9.50361200       9.62352200      34.71613100       0.01747270      -0.12043871      -0.07960136
H       10.07054800       8.03886600      34.19739300      -0.08395218       0.16273233      -0.04365991
H        7.93832900       7.64881400      32.94632300      -0.03458237       0.14289113       0.11395130
H        7.38748200       9.27632000      33.33001700       0.06531939      -0.14302739       0.06224230
H       10.02000700       8.82454000      31.78866100      -0.02004072       0.13103268       0.11274185
H        9.43135500      10.40154700      32.31866500       0.09779500      -0.22608277       0.01662167
H        7.93862700       7.04255500      35.38236600      -0.07986721       0.11740532      -0.04119679
H        7.49205800       8.68426100      35.81738800       0.00826096      -0.11688544      -0.10142437
H       11.54515200      10.82752800      33.59652500       0.03660223      -0.14144051      -0.11742229
H       11.94131900      10.39438100      31.91142400       0.00919838      -0.00277062       0.09196065
H       12.13847400       9.19481200      33.21650800      -0.07147359       0.14378947      -0.07366520
H        5.28160200       8.44112700      34.63296100       0.03860255      -0.06505457       0.03502871
H        5.71614300       6.79974800      34.12286400       0.01308537       0.03050460       0.08406428
H        5.47754900       7.16298900      35.85240000       0.04335240       0.04201080      -0.16095930
H        4.65532700      12.89454200      35.59402200       0.07685645      -0.21109838      -0.12670706
H        5.19839500      12.24347700      34.04664100      -0.04256616       0.05471205       0.19031924
H        6.50558600      10.47122600      35.17822300      -0.05977301       0.05352112       0.12820498
H        5.85802400      10.92663900      36.75569200       0.05373966       0.03583141      -0.17866803
H        3.86150000      10.18974000      34.34926100      -0.01648334       0.16807097       0.19366682
H        3.44604800      10.64427200      36.00677100       0.09390544      -0.01376003      -0.20819715
H        7.61613800      12.65704900      34.93582300       0.01337694       0.10075228       0.12499162
H        6.90969900      13.23885000      36.44417400       0.09171126      -0.17456043      -0.13161632
H        2.12424600      12.57486200      35.26505300       0.00604261      -0.05269373      -0.08270314
H        1.60797600      11.22519800      34.22903600       0.07447047       0.07610157       0.01178491
H        2.75320100      12.45563700      33.61858300      -0.15490589      -0.06176562      -0.01990291
H        8.20310100      11.36835100      37.68807600       0.07361377       0.06864075      -0.13242879
H        9.03570700      11.00673500      36.15976200      -0.08659528       0.00587908       0.06408886
H        9.24335900      12.59129200      36.91794700      -0.07582852      -0.06737114       0.00116985
H        6.37288700       3.30455200      32.14796500      -0.04816911       0.09815136       0.09589804
H        5.69272800       4.89420800      32.48463900       0.06480055      -0.20091733       0.07057576
H        3.65756900       3.81993400      33.50525300       0.11208828      -0.18144945      -0.12535723
H        4.36041800       2.22090900      33.23940200      -0.07394802       0.21894951      -0.06369240
H        5.70844800       4.40845100      34.94916100       0.08525007      -0.12033844      -0.09161921
H        6.33379500       2.78471000      34.64366900      -0.07662094       0.21050343      -0.02460237
H        3.60443600       4.21710000      31.01255300       0.05852860      -0.24798035       0.05458144
H        4.35199100       2.64031000      30.74019600      -0.11752513       0.15917598       0.11803318
H        8.48106300       3.64279100      33.84772500      -0.03069383       0.05192497       0.04515577
H        8.13290100       4.51549400      35.35040300      -0.06045744      -0.01502810      -0.12857368
H        7.88189100       5.30498200      33.77256100       0.00943081      -0.07097068       0.08598284
H        2.35371200       1.49788800      31.81398900      -0.08917049       0.15367433      -0.09132868
H        1.58935200       3.08352700      32.07149800       0.05902945      -0.13456641      -0.13446716
H        1.86499100       2.48803900      30.40977200      -0.02091593      -0.02069841       0.10227798
O        2.36372200       9.64079800      28.48591800       0.23746505      -0.42198080       0.20527278
O       12.61404500       9.54923700      29.38035600       0.40539924       0.06654375       0.02223079
O        4.96315000      11.86520900      30.89984800      -0.07347596      -0.07290312      -0.16191266
O        2.14841700      11.68016900      30.92574400       0.12689835       0.10130096      -0.01421769
O        0.11937600       5.75307900      28.59977000      -0.01450976      -0.01647357      -0.05552966
O       10.24752700       6.30164300      29.07545900       0.08713315      -0.27405853      -0.24020790
O        0.56724900       1.97355400      27.94714700      -1.38633841      -1.79400176      -0.17493684
O       11.12020600       0.68958000      27.15212100      -1.08462818       1.08313385       0.43118894
F        6.18491100       8.84003100      28.64047500       0.07435579       0.54092158      -0.37942081
209
Lattice="12.859 0.0 0.0 0.0 13.791 0.0 0.0 0.0 49.295" Properties=species:S:1:pos:R:3:REF_forces:R:3 system_type=oc25_pt REF_energy=-180595.80044120725 al_round=5 source=cp2k_sp REF_stress="0.0011296752132386922 0.0009371468731393321 0.0008516857175748827 0.0003310465610304239 -0.0013000090722269267 0.002275802831037917" _cp2k_dir=cp2k_sp_round5 orig_idx=837 dE_per_atom_meV=40.36105049074445 F_rmse_meV_A=17.967330786522695 pbc="T T T"
Pt       0.09757900       1.07041200      23.69613200       2.20940876       3.84084120       1.39227766
Pt       0.62667700      10.34302000      24.59977700       0.04460967       0.22352967       0.64699810
Pt       0.62667700       5.74612200      20.10425500       0.19032233      -0.85668650       0.49427045
Pt       0.62667700       3.44767300      22.45453400      -0.17200167       0.23599695      -0.45738797
Pt       0.62667700      12.64146800      22.24949800      -8.45457819      -6.45083044       2.49169791
Pt       1.50745900       8.05153700      25.85382600      -0.20839255      -0.00334706      -0.16148123
Pt       3.77806800       2.26828100      23.78568500       0.22844922      -0.22348185      -0.03039610
Pt       3.84153200      11.49224400      23.42463800      -0.31506969      -0.45001868       0.52514272
Pt       3.84153200       6.89534600      18.92911500       0.31322158       0.30299013       0.37766834
Pt       0.73424600      11.01791300      27.90598400      -0.17786739      -0.27025279       0.22649261
Pt       0.62667700       6.89534600      23.52715600      -0.05860522       0.02084908       0.50234217
Pt       0.62667700       2.29844900      19.03163300      -0.14660380      -0.22444961      -0.62572017
Pt       5.37130900      13.59796600      25.62617000      -0.40884760      -1.37060275       2.13048566
Pt       5.40946300       9.07525400      21.06094900      -0.49446843       0.03032308      -0.18928463
Pt       5.99526900       4.45248000      25.56819200      -0.04686556       0.31314650       0.18330116
Pt       2.27360200       0.11854100      21.49783900       6.41909582       8.09151320      -2.48194469
Pt       2.27360200       9.31233600      21.29280400      -0.23931110      -0.03279288      -0.84877984
Pt       3.28742200       4.54972200      25.44922900      -0.08518991      -0.14256305      -0.01253156
Pt       4.00733700      12.61323000      19.92286200       0.94212015      -0.51339278      -0.07460931
Pt       4.14175600       7.95640800      24.85046200       0.02791653       0.14747489      -0.13832793
Pt       4.00733700       3.41943500      20.12789800       0.35022233      -0.06538316       0.51352853
Pt       3.88880400      10.27482900      26.89014300      -0.60665235       0.03118028      -0.21453801
Pt       3.67572800       5.77436100      22.43089100      -0.04196452      -0.01309412      -0.04970457
Pt       3.67572800       1.17746300      17.93536800       0.47842628       1.27490217      -0.63670803
Pt       6.61119600       1.27754100      24.07144500       0.74790877       1.87999746      -0.54828676
Pt       7.05638800      10.34302000      24.59977700      -0.05637555       0.33133500       0.33899021
Pt       7.05638800       5.74612200      20.10425500       0.17737065      -0.84451386       0.44946949
Pt       7.05638800       3.44767300      22.45453400      -0.08328061      -0.13201124      -0.30484133
Pt       7.05638800      12.64146800      22.24949800      -8.42041182      -5.74597171       3.19092078
Pt       7.47634000       8.49540200      26.76746000      -0.54352919      -0.07740152       0.35871571
Pt      10.18683500       2.24959100      23.70405600       0.30377586      -0.08977573      -0.04307678
Pt      10.27124400      11.49224400      23.42463800      -0.43711637      -0.58525460       0.48778304
Pt      10.27124400       6.89534600      18.92911500       0.26660233       0.29884449       0.29953663
Pt       6.52876100      10.99175400      27.88152900      -0.09193237       0.13850688      -0.21772515
Pt       7.05638800       6.89534600      23.52715600       0.19823001       0.43496847       0.19381183
Pt       7.05638800       2.29844900      19.03163300      -0.17073463      -0.20165369      -0.57729498
Pt      11.75965300      13.49280400      25.63457000      -0.80707808      -0.53864821       0.28878633
Pt      11.83917500       9.07525400      21.06094900      -0.40709976       0.10609349      -0.27619204
Pt      11.56742100       4.59830200      25.53683900      -0.14399053      -0.10497249       0.10321334
Pt       8.70331400       0.11854100      21.49783900       6.10959257       8.00456362      -2.49558594
Pt       8.70331400       9.31233600      21.29280400      -0.33823173       0.03634152      -0.84574851
Pt       8.83878500       4.99051100      25.90708700       0.30988120      -0.19134048       0.06297301
Pt      10.43704900      12.61323000      19.92286200       0.90103032      -0.51740730      -0.10839926
Pt      10.52306700       8.04088400      24.73101800       0.00689621      -0.04672518      -0.03479834
Pt      10.43704900       3.41943500      20.12789800       0.33429486      -0.08400875       0.37679263
Pt       9.74771300      10.02145800      26.54040100      -0.07455583      -0.08358400      -0.18424424
Pt      10.10544000       5.77436100      22.43089100       0.04411396       0.06322909      -0.02829808
Pt      10.10544000       1.17746300      17.93536800       0.45300836       1.29040592      -0.69006666
S        5.06605100      11.29754300      25.34399400       0.03415608      -0.01570738      -0.25647630
S        5.08954400       6.74683700      20.87357900      -0.01879682      -0.02638878      -0.40130964
S        5.08954400       2.14994000      16.37805600      -0.83186506      -0.88274154       1.38323715
S        2.30561100       0.41668200      23.93521800       0.01231250       0.37218829       0.74303447
S        2.59352100       9.55157500      23.61646300       0.62422173      -0.52576081       0.12681145
S        2.59352100       4.95467700      19.12094100       0.01783780       0.68914055      -0.56845553
S        5.80303500       2.14612100      20.97236200      -0.30759292      -0.46884121      -0.25907774
S        5.80303500      11.33991600      20.76732600      -0.35146777       0.72779451      -1.19020797
S        6.05026300       6.83276400      25.64992900       0.10958402       0.12032764       0.09966008
S        1.88003000       0.36159800      19.22719400       0.30077590      -1.19221908      -0.54941548
S        1.88003000       9.55539400      19.02215800       0.56870492      -0.78649075       0.47398445
S        1.87426600       4.96082500      23.73694500       0.01539782      -0.03837012      -0.11427269
S        2.59352100       2.44695800      21.68521000       0.55505236       0.43239942       0.15238570
S        2.59352100      11.64075300      21.48017400       1.11709813      -1.38449288      -0.10579319
S        3.07356900       6.55145400      26.47088700       0.01694666       0.07218064      -0.03049586
S        5.08954400      13.43291300      23.23281200       0.28361841       0.04731653      -0.35052161
S        5.08954400       8.83601600      18.73728900      -0.34793250       0.39890669       0.15135417
S        5.08462400       4.12464400      23.48438800       0.04613279       0.16725233      -0.23026185
S        1.98174100      11.60732100      26.11255900       0.16968048      -0.24114173       0.17786122
S        1.88003000       7.04767400      21.58642700       0.08795436      -0.03077816       0.12061200
S        1.88003000       2.45077700      17.09090400       0.33344331      -0.22094931       0.44991789
S        5.56066700      13.11935200      27.96708700       0.37990829      -0.31039697      -1.43051614
S        5.80303500       8.83219700      23.33159500      -0.21961799      -0.07585989       0.23594398
S        5.80303500       4.23529900      18.83607300      -0.26736904       0.39380973      -0.47765495
S       11.40028100      11.21297600      25.42106600       0.20588110      -0.62428241      -0.43647411
S       11.51925600       6.74683700      20.87357900      -0.04119885       0.00615059      -0.47216462
S       11.51925600       2.14994000      16.37805600      -0.81065963      -0.90300801       1.41695151
S        8.74832000       0.42342300      23.92964800      -0.54329831       0.23188781       0.76125897
S        9.02323200       9.55157500      23.61646300       0.12165433      -0.51346322      -0.27032941
S        9.02323200       4.95467700      19.12094100       0.04220158       0.69619462      -0.54537062
S       12.23274700       2.14612100      20.97236200      -0.32859781      -0.47754954      -0.45924688
S       12.23274700      11.33991600      20.76732600      -0.27066468       0.60081183      -1.10628355
S       12.34526200       6.83396900      25.63318100       0.06093258      -0.12703205       0.02625662
S        8.30974200       0.36159800      19.22719400       0.36184012      -1.19370518      -0.56264020
S        8.30974200       9.55539400      19.02215800       0.57777732      -0.81130909       0.37911382
S        8.32030100       4.98476800      23.73678900       0.04874915       0.04214347      -0.11402638
S        9.02323200       2.44695800      21.68521000       0.40442222       0.30662002      -0.03101111
S        9.02323200      11.64075300      21.48017400       1.25007045      -1.33832769       0.02751543
S        9.24352300       7.22338100      26.47268700      -0.15532601      -0.09555249      -0.27985894
S       11.51925600      13.43291300      23.23281200      -1.75125974      -2.77764060      -0.97612145
S       11.51925600       8.83601600      18.73728900      -0.37282747       0.37802933       0.20525427
S       11.46979600       4.12720800      23.38304500      -0.01462084       0.11982730      -0.08205111
S        8.16557500      11.62815100      26.29195900      -0.48865670      -0.28175539       0.69870865
S        8.30974200       7.04767400      21.58642700      -0.08231902       0.16288454       0.08329089
S        8.30974200       2.45077700      17.09090400       0.30559775      -0.23089074       0.47198876
S       12.06153000      12.79668600      27.91217400       0.21913874       1.67565799      -1.28830224
S       12.23274700       8.83219700      23.33159500      -0.07110541       0.13184721      -0.61301532
S       12.23274700       4.23529900      18.83607300      -0.28185566       0.39702207      -0.42017537
C        1.92793500       8.46517800      29.13424200      -0.38826283       0.69678701       0.10167325
C        0.52797800       8.61838700      29.70113100       0.37612208       0.00870318      -0.23723314
C        4.32271900      10.61639100      31.13711500      -0.44393545       0.80433472       0.14232960
C        2.81365200      10.72136500      31.29602300       0.52653780      -0.15805241      -0.05511314
C       11.98859300       4.81015500      28.32246200       0.19858637       0.09877511       0.13550229
C       10.55367900       5.27222000      28.49809400       0.20210929       0.26061578       0.29691307
C        0.59881800       0.55963200      27.75668000       2.42686600      -0.78829360       2.55830903
C       12.11660300      13.77831400      31.62552900       0.01146558       1.11832763      -0.05114593
C        9.49919800       2.76556200      31.34425800       0.09867278       0.23403468      -0.44101210
C       10.32682100       4.07250500      31.37873200      -0.04485444      -0.31263486       0.42909915
C        8.95605000       2.62666300      29.89304000      -0.18510093      -0.38591747       0.32720735
C       10.99779300       4.61106600      32.66087500       0.15122047       0.23656671      -0.37951131
C        8.05376400       1.41418500      29.58641800       0.21550217       0.37721583      -0.08881465
C       11.79206600       5.89494900      32.27586200      -0.08095839      -0.33326796       0.20227796
C        9.45181300       8.89743200      33.89154800      -0.22572385      -0.03332458      -0.40796674
C        7.98669500       8.43681100      33.71467900       0.25075765      -0.00007816       0.36446984
C       10.05027700       9.54152400      32.62208200       0.27565005      -0.00228263       0.32797509
C        7.37469400       7.91895900      35.03634100      -0.29164282      -0.00440584      -0.33287612
C       11.50572900      10.01857500      32.84788500      -0.30616802      -0.10124337      -0.06927015
C        5.87674900       7.55675800      34.90199800       0.32421408       0.03694418       0.10011259
C        4.92554400      11.95888000      35.07401400       0.02220456      -0.36019718       0.20227641
C        6.14686200      11.32126800      35.77095200      -0.03641659       0.49604760      -0.07081641
C        3.67604900      11.05412700      35.01129800      -0.17222844       0.45061312      -0.10834887
C        7.29651300      12.34089500      35.93544400       0.03638266      -0.37293391       0.26816402
C        2.46106400      11.86590100      34.49593000       0.20344112      -0.18503614       0.16689803
C        8.51183900      11.79261900      36.71996900      -0.21936808       0.25539490      -0.07026980
C        5.72973500       3.85420600      32.85092200      -0.22853046      -0.14616311       0.32413386
C        4.31171300       3.24332700      32.82875600       0.17018442       0.12943140      -0.27069707
C        6.34220200       3.82090100      34.27027100       0.26629020       0.12062280      -0.29075734
C        3.68460200       3.19531100      31.41894100      -0.24498398      -0.13933683       0.25058436
C        7.79136500       4.35454700      34.31467400      -0.35011023      -0.14699564       0.16641518
C        2.28819500       2.52775000      31.42438800       0.28685492       0.16371346      -0.01241483
H        1.45034900      11.81033400      29.01823100       0.00439402       0.04653491       0.04256307
H        2.33466600       9.82263400      31.73943600      -0.10110761       0.00851498       0.01417346
H        1.84491000       7.61787600      28.43070300      -0.03833772      -0.30082938      -0.19261832
H        0.13983500       7.82707400      30.36981200       0.04062960       0.06602336      -0.08035881
H        4.42971900      12.35822600      30.24827900      -0.17195025       0.10679489      -0.19778470
H        4.76121600      10.17051100      32.04033800       0.06642703       0.02099563       0.07539144
H        4.47165400       9.89505300      30.31829500       0.18849581      -0.22328901      -0.27197286
H        2.62797600       8.11885100      29.91102800       0.05746622      -0.00803881       0.14095560
H        0.05465600       6.44375100      27.90268500      -0.07364668       0.24583450      -0.24810736
H       12.17329400       3.90435400      28.92057600       0.01970648       0.02999501       0.13663615
H       12.15143700       4.34912900      27.25986800      -0.03169862      -0.03775048       0.05811722
H        9.78979900       4.56577800      28.04035700      -0.03686037       0.12033432       0.01692814
H       12.74430600       2.29607900      27.32324100      -0.06223356       0.14074374      -0.41416413
H        0.90734100       0.07144800      28.69549000       1.09705998       1.24847534       0.07953760
H        1.33220800       0.26431300      26.98467400      -0.71052595      -0.04962847      -0.22956919
H       12.10286800      12.68217100      31.46980800      -0.01035692      -1.10959411      -0.14209203
H       10.11230200       1.89363700      31.62037200       0.05095773      -0.01949051      -0.02247813
H        8.65592200       2.80802100      32.04034200      -0.04252708      -0.04543860       0.09053523
H        9.67928200       4.87202300      31.00873200      -0.03162354       0.08394241      -0.07469518
H       11.12558800       3.94848800      30.63868400       0.04272402       0.05216152      -0.04107080
H        8.39073800       3.53915600      29.65549500       0.07467667       0.07632989      -0.04459373
H        9.80712800       2.57844400      29.20075700       0.08589491       0.07332170      -0.06010211
H       10.24511700       4.87799400      33.40800800      -0.04828584      -0.08438773       0.08384574
H       11.66926800       3.87165000      33.11691300      -0.05796141      -0.04601504       0.00105107
H        8.59083600       0.47569100      29.74731000      -0.02639032      -0.19105612       0.03605767
H        7.75981100       1.45097500      28.52329900      -0.05207204      -0.14079259       0.14645982
H        7.14148500       1.41213200      30.19536700      -0.01375592      -0.05712940       0.02911415
H       12.69336900       5.64125600      31.69574800      -0.04653337       0.03121371       0.03803022
H       11.16410500       6.53745400      31.64308600       0.03764815       0.09730855       0.03978680
H       12.09634300       6.47210000      33.16075600       0.04382497      -0.02224262      -0.05229881
H        9.50327500       9.62233200      34.71374100       0.03663977       0.01229502       0.09346732
H       10.07002900       8.03926600      34.19507000       0.01451491       0.02739408       0.02616612
H        7.93826800       7.64938900      32.94778800      -0.05535688       0.02443114      -0.03511973
H        7.38768400       9.27676500      33.33195400      -0.03975543      -0.01049267      -0.02340475
H       10.02059600       8.82470600      31.79015800      -0.04843085       0.00631823      -0.04193881
H        9.43235600      10.39923300      32.31946500      -0.03353644      -0.07063438      -0.05438552
H        7.93753400       7.04218300      35.38012000       0.03474692      -0.00764286       0.02400279
H        7.49200300       8.68361800      35.81553000       0.05055252      -0.00493960       0.02860918
H       11.54415400      10.82587400      33.59528400       0.05628659      -0.05880730      -0.04155674
H       11.94080500      10.39443600      31.91185700       0.08365856       0.03447284       0.03459111
H       12.13695400       9.19488100      33.21500300       0.00867747       0.06031140      -0.03230643
H        5.28353000       8.44219300      34.63332300      -0.01425317      -0.02326231       0.00371164
H        5.71838900       6.79805400      34.12292400      -0.01411587      -0.00567802       0.02398634
H        5.47919100       7.16321400      35.85018800      -0.02989833       0.00706488      -0.10200030
H        4.65621400      12.89106200      35.59451400       0.02690660      -0.01087782      -0.04088311
H        5.19909800      12.24514100      34.04861800       0.00744180       0.11719655      -0.01863073
H        6.50391100      10.47307200      35.17891300      -0.00047617      -0.13695445       0.02243648
H        5.85685600      10.92760300      36.75598400       0.00177869      -0.03847605      -0.03729848
H        3.86141800      10.19479800      34.35137900       0.04252554      -0.04029742       0.05725333
H        3.44789900      10.64374200      36.00525300       0.07632989      -0.06975403      -0.04536146
H        7.61654600      12.65741800      34.93904900       0.06622699       0.18053105      -0.13495773
H        6.91097300      13.23667600      36.44309500       0.00076156       0.01333683      -0.04781532
H        2.12455300      12.57597100      35.26681200      -0.01961598      -0.03041461      -0.09986628
H        1.60866800      11.22390300      34.22859200      -0.00035173       0.07871484      -0.00067414
H        2.75097200      12.45363200      33.61471300      -0.13556348      -0.00576236      -0.05723945
H        8.20233900      11.36946900      37.68769700       0.05807711       0.03641557      -0.06303266
H        9.03183300      11.00594000      36.15996100      -0.00044274      -0.07971963       0.00884254
H        9.24234800      12.59382400      36.91748400      -0.03752217      -0.11341137       0.01748813
H        6.37299000       3.30351800      32.14958900       0.05161747       0.02938411      -0.02312553
H        5.69289800       4.89288100      32.48689600       0.06531220      -0.03400541      -0.01527750
H        3.65809300       3.81899600      33.50304500       0.00566260      -0.09537251      -0.00383094
H        4.35962900       2.22233200      33.23719200      -0.06765756       0.02791447       0.02590130
H        5.70854700       4.40866200      34.94741200      -0.04202366      -0.03138546       0.03231106
H        6.33188300       2.78627300      34.64285600      -0.08847475       0.03601036       0.04879903
H        3.60432200       4.21505800      31.01390400       0.06576625      -0.04822104      -0.03328962
H        4.35067100       2.64102300      30.74205500       0.02806874       0.06599765      -0.02510014
H        8.47937300       3.64225800      33.84939200       0.04523548       0.00180029      -0.00675583
H        8.13026300       4.51518900      35.34953000       0.00576596       0.01424340      -0.08006827
H        7.88049000       5.30484000      33.77379000       0.03031228       0.04307421       0.00768708
H        2.35401100       1.49970100      31.81240300      -0.09234838       0.03500043      -0.04444718
H        1.59048100       3.08364300      32.07010600      -0.01508878      -0.08804846      -0.07051817
H        1.86505300       2.48840600      30.41004200      -0.08364776      -0.04168941       0.04485033
O        2.36541700       9.64060400      28.49027200       0.28635766      -0.28315921      -0.03352873
O       12.62170800       9.55172100      29.38559700       0.32500958       0.13557428      -0.00465370
O        4.96407600      11.87015900      30.89491200       0.03388817      -0.73188514       0.26054482
O        2.15305200      11.68398200      30.92805100      -0.14395196       0.26367436       0.03725169
O        0.12091800       5.76083100      28.59625300      -0.10981182      -0.55763992       0.25333904
O       10.24824900       6.29774500      29.07761100       0.09768187      -0.14268235      -0.24453507
O        0.56471600       1.97617200      27.94535500      -1.15047465      -1.99969106      -0.07052228
O       11.12181800       0.69108500      27.15019900      -1.02977574       0.95331987       0.34520302
F        6.17100700       8.87125900      28.63913400      -0.27020394       0.62583381      -0.32926115
209
Lattice="12.859 0.0 0.0 0.0 13.791 0.0 0.0 0.0 49.295" Properties=species:S:1:pos:R:3:REF_forces:R:3 system_type=oc25_pt REF_energy=-180595.79137396207 al_round=5 source=cp2k_sp REF_stress="0.001158941468203936 0.0009877636279271816 0.0009009915757827736 0.0003337238283815841 -0.001309175250879361 0.002232620799099733" _cp2k_dir=cp2k_sp_round5 orig_idx=839 dE_per_atom_meV=40.358794450232956 F_rmse_meV_A=18.582299972829894 pbc="T T T"
Pt       0.09894700       1.07075500      23.69672100       2.18786857       3.82146897       1.38222465
Pt       0.62667700      10.34302000      24.59977700       0.04750679       0.22007513       0.64882102
Pt       0.62667700       5.74612200      20.10425500       0.19029199      -0.85680322       0.49436147
Pt       0.62667700       3.44767300      22.45453400      -0.17060659       0.23605351      -0.46188535
Pt       0.62667700      12.64146800      22.24949800      -8.45738943      -6.44877407       2.49244353
Pt       1.50642600       8.05019700      25.85430500      -0.20235458       0.01936504      -0.16617864
Pt       3.77785000       2.26807100      23.78450700       0.23557580      -0.21536539      -0.02190940
Pt       3.84153200      11.49224400      23.42463800      -0.31414666      -0.44776485       0.52122179
Pt       3.84153200       6.89534600      18.92911500       0.31333522       0.30301019       0.37789049
Pt       0.73319200      11.01955800      27.90560500      -0.15988818      -0.29952480       0.24974772
Pt       0.62667700       6.89534600      23.52715600      -0.06078654       0.02008803       0.49672226
Pt       0.62667700       2.29844900      19.03163300      -0.14648193      -0.22445938      -0.62589809
Pt       5.37146900      13.59892300      25.62560000      -0.41748136      -1.39594457       2.14366565
Pt       5.40946300       9.07525400      21.06094900      -0.49522742       0.02993844      -0.18952117
Pt       5.99334700       4.45337000      25.56868100      -0.04013955       0.31239574       0.18220072
Pt       2.27360200       0.11854100      21.49783900       6.41971598       8.09052744      -2.48284149
Pt       2.27360200       9.31233600      21.29280400      -0.23968391      -0.03207349      -0.84892279
Pt       3.28607100       4.55011400      25.44927500      -0.07999577      -0.14126825      -0.00881580
Pt       4.00733700      12.61323000      19.92286200       0.94181984      -0.51337272      -0.07467564
Pt       4.14322300       7.95627500      24.84984600       0.00663499       0.15190953      -0.12933010
Pt       4.00733700       3.41943500      20.12789800       0.35051286      -0.06479232       0.51322823
Pt       3.88817000      10.27697000      26.88752900      -0.62110864      -0.00161825      -0.16828951
Pt       3.67572800       5.77436100      22.43089100      -0.04177889      -0.01181628      -0.05021056
Pt       3.67572800       1.17746300      17.93536800       0.47842474       1.27487234      -0.63681551
Pt       6.61155100       1.27650000      24.07156900       0.75738997       1.89563234      -0.56249931
Pt       7.05638800      10.34302000      24.59977700      -0.05907984       0.32431486       0.34164256
Pt       7.05638800       5.74612200      20.10425500       0.17722564      -0.84407009       0.44858349
Pt       7.05638800       3.44767300      22.45453400      -0.07881460      -0.13362590      -0.30439447
Pt       7.05638800      12.64146800      22.24949800      -8.42157705      -5.74501526       3.18921357
Pt       7.47696300       8.49237400      26.76777900      -0.60232004      -0.02793350       0.37580326
Pt      10.18584700       2.24933200      23.70413000       0.31707412      -0.07679834      -0.04436027
Pt      10.27124400      11.49224400      23.42463800      -0.43580562      -0.58377056       0.48375361
Pt      10.27124400       6.89534600      18.92911500       0.26650823       0.29873444       0.29967598
Pt       6.53089900      10.99286200      27.88172800      -0.10397336       0.13227864      -0.21056411
Pt       7.05638800       6.89534600      23.52715600       0.19997888       0.43799260       0.19196680
Pt       7.05638800       2.29844900      19.03163300      -0.17055363      -0.20144646      -0.57727287
Pt      11.76041200      13.49348600      25.63334900      -0.81236684      -0.52828255       0.31039080
Pt      11.83917500       9.07525400      21.06094900      -0.40655777       0.10626422      -0.27580688
Pt      11.56819500       4.59839900      25.53795100      -0.14434688      -0.11235413       0.07136612
Pt       8.70331400       0.11854100      21.49783900       6.10956738       8.00351050      -2.49693936
Pt       8.70331400       9.31233600      21.29280400      -0.33769848       0.03590186      -0.84549088
Pt       8.84033000       4.99046400      25.90588400       0.30179508      -0.18387966       0.06648153
Pt      10.43704900      12.61323000      19.92286200       0.90099843      -0.51750088      -0.10799354
Pt      10.52183700       8.04076400      24.73157400       0.02568069      -0.04534038      -0.03815620
Pt      10.43704900       3.41943500      20.12789800       0.33479057      -0.08393264       0.37726571
Pt       9.74808500      10.02243000      26.53964400      -0.06977975      -0.09351566      -0.17783602
Pt      10.10544000       5.77436100      22.43089100       0.04398644       0.06965222      -0.03442913
Pt      10.10544000       1.17746300      17.93536800       0.45299807       1.29021720      -0.69030217
S        5.06599300      11.29671800      25.34354700       0.04603509       0.01904673      -0.28220636
S        5.08954400       6.74683700      20.87357900      -0.01886727      -0.02586581      -0.40183620
S        5.08954400       2.14994000      16.37805600      -0.83182495      -0.88271789       1.38324126
S        2.30576100       0.41626800      23.93533000       0.01945245       0.37510392       0.74133189
S        2.59352100       9.55157500      23.61646300       0.62400781      -0.52829026       0.12570176
S        2.59352100       4.95467700      19.12094100       0.01774421       0.68908295      -0.56865813
S        5.80303500       2.14612100      20.97236200      -0.30710287      -0.46867923      -0.25846274
S        5.80303500      11.33991600      20.76732600      -0.35147651       0.72745667      -1.19018483
S        6.05106800       6.83377000      25.65051300       0.09973773       0.10642928       0.09594175
S        1.88003000       0.36159800      19.22719400       0.30062009      -1.19222988      -0.54940776
S        1.88003000       9.55539400      19.02215800       0.56892964      -0.78667895       0.47383121
S        1.87402900       4.96080900      23.73685900       0.01595164      -0.03678220      -0.11692350
S        2.59352100       2.44695800      21.68521000       0.55404963       0.43248941       0.15135468
S        2.59352100      11.64075300      21.48017400       1.11690375      -1.38442243      -0.10646939
S        3.07312800       6.55243400      26.47046200       0.02744241       0.05763385      -0.02989113
S        5.08954400      13.43291300      23.23281200       0.28077014       0.04526582      -0.35579237
S        5.08954400       8.83601600      18.73728900      -0.34794536       0.39897096       0.15117779
S        5.08533600       4.12534800      23.48387500       0.03563446       0.15692472      -0.22601953
S        1.98148100      11.60736500      26.11365200       0.17425704      -0.23251002       0.15683782
S        1.88003000       7.04767400      21.58642700       0.08800373      -0.03037810       0.12066188
S        1.88003000       2.45077700      17.09090400       0.33330293      -0.22098273       0.45013386
S        5.56092400      13.11866100      27.96564200       0.38021425      -0.29911651      -1.42666051
S        5.80303500       8.83219700      23.33159500      -0.21488613      -0.07486487       0.22903440
S        5.80303500       4.23529900      18.83607300      -0.26761432       0.39367912      -0.47743692
S       11.40118600      11.21400400      25.42044000       0.19679739      -0.62917316      -0.43276195
S       11.51925600       6.74683700      20.87357900      -0.03981508       0.00745671      -0.47352885
S       11.51925600       2.14994000      16.37805600      -0.81071260      -0.90291956       1.41693609
S        8.74868400       0.42318300      23.92932200      -0.54395085       0.22883848       0.76441474
S        9.02323200       9.55157500      23.61646300       0.12038677      -0.51119911      -0.27022245
S        9.02323200       4.95467700      19.12094100       0.04208228       0.69616891      -0.54553157
S       12.23274700       2.14612100      20.97236200      -0.32891354      -0.47942027      -0.45905199
S       12.23274700      11.33991600      20.76732600      -0.27009801       0.60091725      -1.10673041
S       12.34614500       6.83323600      25.63331900       0.03964590      -0.12363768       0.02326540
S        8.30974200       0.36159800      19.22719400       0.36155472      -1.19366970      -0.56299347
S        8.30974200       9.55539400      19.02215800       0.57775983      -0.81108489       0.37925111
S        8.32061600       4.98535600      23.73619100       0.04522571       0.03496443      -0.10890063
S        9.02323200       2.44695800      21.68521000       0.40234888       0.30569442      -0.03306850
S        9.02323200      11.64075300      21.48017400       1.24955006      -1.33866142       0.02719867
S        9.23985100       7.22511300      26.47194300      -0.07894316      -0.15443384      -0.29002046
S       11.51925600      13.43291300      23.23281200      -1.73181963      -2.75645368      -0.97365627
S       11.51925600       8.83601600      18.73728900      -0.37305424       0.37800979       0.20541676
S       11.46991800       4.12786400      23.38187000      -0.02078274       0.11034867      -0.04657502
S        8.16448600      11.62663900      26.29260800      -0.47797428      -0.26192961       0.69013351
S        8.30974200       7.04767400      21.58642700      -0.08398509       0.16340750       0.08110288
S        8.30974200       2.45077700      17.09090400       0.30568928      -0.23098690       0.47190699
S       12.06140400      12.79602800      27.91257900       0.21364275       1.69357961      -1.29522468
S       12.23274700       8.83219700      23.33159500      -0.07690119       0.12794325      -0.60700202
S       12.23274700       4.23529900      18.83607300      -0.28192868       0.39699996      -0.42041139
C        1.92906000       8.46442000      29.13334200      -0.45041257       0.76875013       0.12403003
C        0.52799700       8.61826400      29.70066700       0.40276026       0.00464187      -0.23665515
C        4.32295700      10.61462700      31.13651900      -0.47658332       0.91053003       0.17683637
C        2.81232200      10.72138800      31.29693000       0.60299778      -0.16584645      -0.08539508
C       11.98852300       4.80983000      28.32316200       0.22050965       0.09759497       0.12729173
C       10.55397200       5.27215500      28.49793600       0.21426033       0.27452390       0.31289402
C        0.59908800       0.55923900      27.75646200       2.39910014      -0.75481012       2.55669283
C       12.11660900      13.77764200      31.62556700       0.01209447       1.15832474      -0.04650612
C        9.49925400       2.76545400      31.34511300       0.10502083       0.26051756      -0.49938540
C       10.32688200       4.07322500      31.37811000      -0.04662747      -0.35704244       0.48379835
C        8.95645900       2.62747700      29.89235400      -0.20901425      -0.44241952       0.36771560
C       10.99754300       4.61040700      32.66150500       0.16362656       0.27729812      -0.43256860
C        8.05316100       1.41300300      29.58651600       0.24319552       0.43630801      -0.10777294
C       11.79221400       5.89527700      32.27572700      -0.09149323      -0.36478403       0.22192993
C        9.45224700       8.89734600      33.89226400      -0.25847662      -0.03005003      -0.46685683
C        7.98616600       8.43688700      33.71388900       0.28703489      -0.00341237       0.42080940
C       10.04975800       9.54150700      32.62140100       0.31626474      -0.00460433       0.37751099
C        7.37531500       7.91893400      35.03687400      -0.33396216      -0.00384277      -0.37770537
C       11.50633900      10.01871000      32.84796800      -0.34282012      -0.10887440      -0.08435996
C        5.87624100       7.55663400      34.90174800       0.35824674       0.04287880       0.11240967
C        4.92552400      11.95968600      35.07355100       0.02383824      -0.41953053       0.23116019
C        6.14656900      11.32032700      35.77118200      -0.02867346       0.56534243      -0.08909850
C        3.67644600      11.05354200      35.01163300      -0.19445100       0.50995932      -0.13053697
C        7.29634100      12.34169000      35.93496200       0.04429497      -0.43731228       0.30302664
C        2.46052500      11.86639500      34.49560500       0.22847750      -0.21196999       0.18517703
C        8.51226700      11.79230000      36.72021600      -0.24351845       0.28532048      -0.08527836
C        5.73014400       3.85446300      32.85023400      -0.25883812      -0.16960129       0.37520420
C        4.31132200       3.24299600      32.82935400       0.19892678       0.15379260      -0.32222867
C        6.34157400       3.82060700      34.27084300       0.30765566       0.14388100      -0.33446095
C        3.68511100       3.19564100      31.41832800      -0.28360196      -0.16476247       0.29605432
C        7.79188500       4.35484600      34.31449700      -0.38700556      -0.16585159       0.18227734
C        2.28766000       2.52749900      31.42440600       0.31902919       0.18249332      -0.02434218
H        1.45062000      11.81135800      29.01801200       0.00125264       0.04240007       0.03746149
H        2.33498600       9.82237500      31.73912200      -0.12751747      -0.00659848       0.03053699
H        1.84441100       7.61860800      28.43179100      -0.03340120      -0.34930856      -0.23592187
H        0.14020100       7.82730000      30.36952400       0.03554088       0.05884279      -0.07586658
H        4.42998600      12.35811200      30.24864000      -0.19891444       0.12530786      -0.22693278
H        4.76102400      10.17107700      32.04014200       0.07794917       0.00758218       0.09151688
H        4.47209400       9.89573800      30.31872900       0.19587591      -0.26650772      -0.31905696
H        2.62699800       8.11973600      29.91047200       0.09274021      -0.02698682       0.17301983
H        0.05471000       6.44379100      27.90287400      -0.08008987       0.26901300      -0.27668672
H       12.17345800       3.90327000      28.92151100       0.01943908       0.05332160       0.12168981
H       12.15121700       4.34891600      27.25936400      -0.02967156      -0.03625307       0.07692998
H        9.79045700       4.56707700      28.04121500      -0.05629585       0.09633461       0.00104901
H       12.74444200       2.29604200      27.32324400      -0.07635457       0.14598468      -0.42757500
H        0.90723100       0.07193500      28.69495800       1.10168436       1.23817910       0.09711109
H        1.33211500       0.26422800      26.98492800      -0.69827105      -0.05370006      -0.24457004
H       12.10270100      12.68271700      31.46975000      -0.01082743      -1.15041654      -0.14771452
H       10.11216800       1.89367900      31.61998400       0.06029649      -0.02879276      -0.01551198
H        8.65595800       2.80787700      32.04019400      -0.05506481      -0.04357095       0.10309970
H        9.67941000       4.87174700      31.00874800      -0.04761992       0.10698361      -0.08406634
H       11.12543500       3.94861400      30.63897200       0.05670157       0.05096184      -0.05491105
H        8.39101600       3.53931800      29.65558300       0.06504737       0.08980555      -0.05085848
H        9.80739900       2.57870400      29.20078800       0.09560854       0.07225212      -0.07008159
H       10.24529400       4.87783800      33.40776600      -0.06441797      -0.08144227       0.10094100
H       11.66917200       3.87172500      33.11666400      -0.04647886      -0.06298843       0.01049730
H        8.59115100       0.47553800      29.74742100      -0.02353845      -0.20254329       0.03769392
H        7.75959700       1.45095800      28.52297500      -0.05248753      -0.14801842       0.15813931
H        7.14141700       1.41221900      30.19569800      -0.02048192      -0.06080299       0.03291784
H       12.69310000       5.64118800      31.69588900      -0.03684597       0.02914140       0.03175518
H       11.16446600       6.53753000      31.64352100       0.02632090       0.10608012       0.02901182
H       12.09633300       6.47174000      33.16060700       0.04917184      -0.01344224      -0.04272711
H        9.50324400       9.62222100      34.71351900       0.03838606       0.02510631       0.10994655
H       10.06998100       8.03930400      34.19485400       0.02387012       0.01448868       0.03266484
H        7.93826200       7.64944300      32.94792400      -0.05724870       0.01306018      -0.04920938
H        7.38770300       9.27680600      33.33213500      -0.04974108       0.00221629      -0.03142403
H       10.02065100       8.82472100      31.79029700      -0.05098909      -0.00561889      -0.05661364
H        9.43245000      10.39901800      32.31953900      -0.04599910      -0.05572198      -0.06105033
H        7.93743200       7.04214800      35.37991200       0.04551007      -0.01960466       0.03011122
H        7.49199800       8.68355800      35.81535700       0.05444517       0.00577007       0.04093711
H       11.54406100      10.82571900      33.59516900       0.05804266      -0.05106211      -0.03442090
H       11.94075700      10.39444100      31.91189700       0.09053626       0.03793046       0.02922008
H       12.13681200       9.19488700      33.21486200       0.01615013       0.05239497      -0.02842252
H        5.28371000       8.44229300      34.63335700      -0.01914238      -0.01932853       0.00079293
H        5.71859800       6.79789700      34.12292900      -0.01659956      -0.00906468       0.01837568
H        5.47934400       7.16323500      35.84998100      -0.03666548       0.00381757      -0.09648425
H        4.65629700      12.89073800      35.59455900       0.02213206       0.00808149      -0.03252909
H        5.19916400      12.24529600      34.04880200       0.01228782       0.12310391      -0.03865500
H        6.50375400      10.47324400      35.17897700       0.00529442      -0.15500411       0.01222200
H        5.85674700      10.92769300      36.75601100      -0.00312338      -0.04541494      -0.02378425
H        3.86141000      10.19526900      34.35157600       0.04805906      -0.06011754       0.04402295
H        3.44807100      10.64369200      36.00511200       0.07455120      -0.07507468      -0.02984537
H        7.61658500      12.65745200      34.93934900       0.07151113       0.18810089      -0.15990412
H        6.91109200      13.23647400      36.44299500      -0.00787323       0.03119571      -0.03964539
H        2.12458200      12.57607400      35.26697700      -0.02194797      -0.02840092      -0.10149996
H        1.60873300      11.22378200      34.22855100      -0.00722634       0.07895138      -0.00179617
H        2.75076500      12.45344500      33.61435300      -0.13371897      -0.00055896      -0.06075723
H        8.20226800      11.36957300      37.68766200       0.05657559       0.03342537      -0.05655913
H        9.03147200      11.00586600      36.15998000       0.00757653      -0.08781706       0.00355275
H        9.24225400      12.59406000      36.91744100      -0.03403884      -0.11775808       0.01896909
H        6.37300000       3.30342100      32.14974100       0.06109147       0.02274964      -0.03435303
H        5.69291400       4.89275800      32.48710600       0.06530243      -0.01808206      -0.02330140
H        3.65814200       3.81890800      33.50284000      -0.00446035      -0.08709613       0.00765366
H        4.35955500       2.22246500      33.23698600      -0.06700244       0.00962158       0.03434686
H        5.70855700       4.40868100      34.94724900      -0.05406208      -0.02278358       0.04405894
H        6.33170500       2.78641800      34.64278000      -0.08952479       0.01936606       0.05571530
H        3.60431100       4.21486800      31.01403000       0.06630567      -0.02915271      -0.04157988
H        4.35054800       2.64109000      30.74222800       0.04189716       0.05695765      -0.03869099
H        8.47921500       3.64220900      33.84954700       0.05228801      -0.00294237      -0.01160853
H        8.13001700       4.51516100      35.34944800       0.01185330       0.01694151      -0.07558735
H        7.88036000       5.30482700      33.77390500       0.03219638       0.05386873       0.00030082
H        2.35403900       1.49987000      31.81225500      -0.09256589       0.02382590      -0.04003054
H        1.59058600       3.08365400      32.06997600      -0.02200247      -0.08362617      -0.06449664
H        1.86505900       2.48844000      30.41006700      -0.08943634      -0.04361980       0.03950706
O        2.36557400       9.64058600      28.49067700       0.29101753      -0.27092796      -0.05467091
O       12.62242100       9.55195300      29.38608500       0.31560242       0.14214293      -0.00638096
O        4.96416200      11.87062000      30.89445200       0.04652617      -0.79126683       0.30081241
O        2.15348400      11.68433700      30.92826600      -0.16832551       0.27855848       0.04187813
O        0.12106100       5.76155300      28.59592600      -0.11822293      -0.60707967       0.28298746
O       10.24831600       6.29738200      29.07781100       0.09868306      -0.13083676      -0.24457775
O        0.56448000       1.97641600      27.94518800      -1.12832716      -2.01846577      -0.06057571
O       11.12196800       0.69122500      27.15002000      -1.02494207       0.94117449       0.33716575
F        6.16971100       8.87416800      28.63900900      -0.28594834       0.66398744      -0.33819214
