254
Lattice="11.099 0.0 0.0 0.0 9.612 0.0 0.0 0.0 33.0" Properties=species:S:1:pos:R:3:REF_forces:R:3 system_type=Close0.75PtOH2 REF_energy=-253019.02164401405 al_round=6 source=cp2k_sp REF_stress="-0.022580694058355617 -0.00889730036663361 -0.005578381947505047 0.0006226992368682866 -0.0014884685080796154 0.0013602999159329895" _cp2k_dir=cp2k_sp_round6 orig_idx=44 pbc="T T T"
Pt      11.06747900       9.25827800       0.00231000       0.21019387       0.25112224      -0.00170310
Pt       2.79683700       9.26279600       0.00198000      -0.24266845       0.07747814       0.22723926
Pt       5.51664700       9.26068100       0.00297000       0.35389798      -0.08082263       0.01756784
Pt       8.34711400       9.26097000       0.00231000      -0.23848732       0.17349754      -0.10030440
Pt       1.35818500       2.05168100       0.00132000      -0.08213338       0.07631446       0.14208843
Pt       4.19653200       2.05120100       0.00231000      -0.29530459      -0.22317948      -0.14896253
Pt       6.90923800       2.05293100       0.00000000       0.55376321       0.02058734       0.17782934
Pt       9.74403400       2.04850900       0.00132000      -0.29358298       0.06632727      -0.01861427
Pt      11.06747900       4.45227800       0.00231000       0.16358079      -0.01883847      -0.05924593
Pt       2.79683700       4.45689200       0.00198000      -0.28590926       0.33065109       0.39836881
Pt       5.51664700       4.45468100       0.00297000       0.39821660       0.41061755       0.13510634
Pt       8.34711400       4.45497000       0.00231000      -0.20181413       0.12043305      -0.17752183
Pt       1.35818500       6.85768100       0.00132000       0.25441582      -0.02397451      -0.40836732
Pt       4.19653200       6.85720100       0.00231000      -0.17348417       0.07493429      -0.03748257
Pt       6.90923800       6.85883500       0.00000000       0.24730260       0.02507134       0.06789924
Pt       9.74403400       6.85450900       0.00132000      -0.40516886       0.01519214       0.13177162
Pt       1.38193600       0.68821900       2.37237000       0.08672280      -0.34919132       0.18813020
Pt       4.16712000       0.69168000       2.37963000      -0.03789858      -0.24238820       0.13231875
Pt       6.93188000       0.68687400       2.37171000      -0.02521635      -0.27273802       0.35530489
Pt       9.71717500       0.69196800       2.37963000      -0.12317385      -0.33996723       0.41508304
Pt      11.09367200       3.09573700       2.37963000       0.17266862      -0.26092225       0.07491630
Pt       2.77919000       3.09045000       2.37105000      -0.13841843      -0.13353694       0.31809742
Pt       5.54550400       3.09429500       2.37963000       0.04742554      -0.33309364       0.05451356
Pt       8.32902300       3.08910500       2.37039000      -0.09836784      -0.24520767       0.06199702
Pt       1.38193600       5.49421900       2.37237000       0.01808411      -0.03891468       0.15344602
Pt       4.16712000       5.49768000       2.37963000      -0.02032200      -0.38293653       0.19804078
Pt       6.93188000       5.49287400       2.37171000       0.00746803      -0.16975401      -0.07274731
Pt       9.71717500       5.49806400       2.37963000       0.07859657      -0.10968738       0.03294715
Pt      11.09367200       7.90173700       2.37963000       0.08711207      -0.19491277       0.24723370
Pt       2.77919000       7.89645000       2.37105000       0.18032793      -0.15478454       0.25946238
Pt       5.54550400       7.90029500       2.37963000      -0.05999464      -0.14344803       0.43384695
Pt       8.32902300       7.89510500       2.37039000      -0.02615121      -0.08941886       0.02810473
Pt      11.11330600       1.47481900       4.71584100       0.14783639       0.02146151      -0.16574566
Pt       2.78297400       1.41740900       4.71094700       0.06206849       0.06133007      -0.34835674
Pt       5.54100000       1.41314300       4.77620200       0.04743274       0.00185634      -0.60475128
Pt       8.33684700       1.43363600       4.75855400       0.20782640      -0.11040318      -0.25999203
Pt       1.43806500       3.86659100       4.76203900       0.03703006       0.08165053       0.14843854
Pt       4.16640900       3.82533700       4.72330000      -0.19862185       0.32724386       0.13770315
Pt       6.95282600       3.82781900       4.68904600      -0.02794738       0.21296706      -0.07849836
Pt       9.73937000       3.88185900       4.65350400      -0.14568951       0.13735143       0.14638423
Pt      11.12943600       6.29046300       4.74671500      -0.02597380      -0.09247847      -0.68296424
Pt       2.84055700       6.20657600       4.71904600      -0.08485361      -0.06244233       0.26656891
Pt       5.56662200       6.21667600       4.69787800      -0.05578986       0.32416831       0.16027384
Pt       8.34398400       6.27314000       4.67629800       0.13536448       0.01063717       0.03445484
Pt       1.46379100       8.62092500       4.73946200      -0.10663445       0.17549015      -0.01294396
Pt       4.20990400       8.62714900       4.84067200      -0.04404249       0.19591293       0.15111660
Pt       6.94155400       8.67931900       4.70668500       0.08388996       0.05816093       0.11565440
Pt       9.75341600       8.67453700       4.73937300      -0.10101505       0.07162683      -0.69406729
Pt      11.30615900      -0.10345700       6.94889300       0.22646330      -0.89966454      -1.19174034
Pt       2.84952300      -0.22107000       7.18443000       0.36042910       0.53527389       0.37197129
Pt       5.54482600      -0.24382700       7.41360700       0.01962318       0.19515034      -0.44173972
Pt       8.29157900      -0.19669800       7.02077600      -0.11664685      -0.46898879      -0.15137937
Pt       1.35382700       2.34123600       7.02624600       0.03808267       0.29508296       0.42306014
Pt       4.07346400       2.20274700       6.94638400      -0.11558189       1.18085121       0.16488434
Pt       7.02575800       2.39654300       6.97816400      -0.93652337      -0.86445637       0.44610649
Pt       9.70977800       2.48499000       7.02286700       0.40145979       0.21600199       0.01290077
Pt      11.08096800       4.69333400       7.00518100       0.10373014       0.43869400      -0.36697307
Pt       0.63950900       5.12457500      16.04415700      -0.78437010      -0.14431860      -1.25898909
Pt       5.58252200       4.70143100       6.98603500       0.04306238      -0.66431243      -0.01656819
Pt       8.29789700       4.70497400       7.04998500       0.41809020       0.22811343      -0.44592651
Pt       1.58539100       6.87048400       6.97386600       0.56011281      -0.32300720      -0.93879622
Pt       4.28477400       7.05979700       7.24486400       0.20495499       0.14487807      -0.12402797
Pt       6.93355200       7.01649300       6.97711400      -0.48100099       0.28249073      -0.74136068
Pt       9.62756300       6.94458600       7.06949400      -0.10131433       0.09784745      -0.21466296
O        4.88538900      -0.41139800      11.07001600       1.31314836      -0.26673140      -0.11894953
O        8.37963400       8.48178100       8.84325800      -0.29854829      -0.17211069       0.48413105
O        4.16273800       3.11237400       8.81729800      -0.28021067      -0.24575994      -0.18273809
O        6.24099400       1.25525700       8.48448000       0.33208577       0.17294938       0.14405378
O        1.44259100       1.80892100       9.08137800       0.07102364       0.71651765      -0.50550823
O        5.16505100       4.05165500       8.86779000      -0.05236978       0.38397063       0.08332895
O        9.84938500       0.75151900       7.96978400      -0.67918935       0.83494679       1.23222442
O        2.00067500      10.42092600      12.62019300      -1.10532196      -0.45147546       0.18926252
O       11.19190100       7.79104500       8.01332000      -0.37016946       0.04989175       1.04156991
O        4.89610500       6.92023300       9.77473500      -0.62528308       0.26395153       0.50299986
O        2.02230600       0.62983400       9.24243900       0.42697645      -0.71017011      -0.24311839
O        6.01153800       7.45894400       9.94562700       1.42856519       0.39945587      -0.28816464
O        8.27363100       0.77455600      13.10572600      -0.07725651       0.07360915       0.71584094
H        7.76094900       1.13101200      12.34002400      -0.20604874       0.02616303      -0.17091924
H        9.13981100       0.37311700      12.77598800       0.25023366      -0.09960403      -0.20602354
O        2.90753400       5.76749400       8.17643000      -0.50851334       0.60938081       0.82931350
H        3.07989700       4.88950300       7.81474400      -0.23405165      -0.80360607      -0.41120273
H        3.90534600       7.87763600      15.93861900       0.27328463      -0.29446795      -0.26164730
O        4.01612300       6.99301600      15.54499300       0.17447250      -0.02665874      -0.00572688
H        2.33768900      10.25345900      11.71500400       0.34678322      -0.26351033       0.22063358
H        6.14247900       6.74447000      13.20422700       0.03830687      -0.07539092      -0.05523398
O       -0.52726900       9.23883200      12.41738400      -0.42556903       0.12540094       0.35240211
H       -0.61543000       8.47073100      11.75801400      -0.02546421      -0.13845392      -0.14061981
H        0.32771800       9.70124900      12.23917100       0.42811956       0.22384231       0.19052441
O        5.94830600       4.76264000      11.89794900      -0.04476137      -0.02545032      -0.03869973
H        5.13254900       4.96799900      11.40374900      -0.07179909      -0.00217618      -0.10732300
H        7.46072000       5.40380800      11.64212800       0.20260192      -0.01774113      -0.10994552
O       10.30870600       7.20838400      10.80255200      -0.16922025      -0.20910938       0.04332309
H       10.14338800       7.47974000       9.87488500       0.06635812       0.05841341       0.13235217
H        9.52664600       6.65253200      11.06391100       0.09741088       0.07914268      -0.16163498
O        6.50804200       2.03572600      11.22870600       0.12184562       0.13345466       0.08443709
H        6.13618600       3.81274200      11.67732300      -0.10374094       0.10692345      -0.10837612
H        6.47113200       1.85680000      10.24811100       0.01620669      -0.11681345      -0.01965763
S        2.10194900       2.77355300      12.34475100       0.53605911      -0.26787606       0.49067811
O        4.08801800       8.25406600      11.11407800      -2.31396679      -0.45048919       0.07051817
O        2.80834400       4.36051500      11.85300500      -0.18984050       0.17221199       0.09209589
O        2.87152400       2.34395500      14.84299000      -0.60040971      -1.08613227       3.31769726
H        5.69450400       1.61457200      11.56001600      -0.06067547      -0.09626931      -0.20051521
C        3.21660500       2.61395400      13.65035400      -0.28774966       0.38937920      -4.89203167
C        3.61658700       1.44908200      15.69749700      -0.85838085      -0.05890295      -1.76469530
O        4.29779600       2.27637300      16.56345500       0.07892670       0.14730211       0.39583216
F       -4.99001900       4.55504800      15.51759200       0.24556454      -0.02807233       0.79694485
F        4.51046900       2.69532400      13.41886500       1.44286052       1.03114614       0.38945634
F        2.67415200       0.68019600      16.28332600      -0.17440977      -0.07959982       0.26909013
F        4.44741500       0.63208100      15.01592300      -0.22244672       0.30479916       0.55763427
C        4.81230500       1.75192100      17.74698000       0.21767887       0.33853924       0.61702367
C        6.25099100       2.31479400      17.89045900       0.85630032      -0.29627030      -0.49794456
C        3.87543900       2.17631700      18.92621600      -0.50679070      -0.09860644      -0.30173955
O        4.35545700       1.72950800      20.12962700       0.72216740      -0.42542607      -0.68484063
F        7.00154700       1.92703200      16.82320100      -0.27136402       0.15812286       0.02075703
F        6.87819000       1.89035200      19.00703100      -0.15528282       0.33609360      -0.34324435
F        6.24935900       3.69146300      17.92565200      -0.08480373      -0.01091022       0.37138302
F        4.89997300       0.38467500      17.74697400      -0.34396375      -0.49134454      -0.02110824
F        2.64843900       1.66187900      18.66108100      -0.14877072      -0.23255836      -0.08197552
F        3.74059700       3.54497300      18.87289400       0.07706522       0.41025759      -0.02011837
C        3.85961600       2.12818100      21.40995700      -0.62687202       0.52009718       0.72683549
C        2.32875400       1.81398200      21.57222700      -0.11085621      -0.21195405       0.20133539
F        4.56242400       1.29990600      22.24991200       0.16660287      -0.16717571      -0.12410356
F        2.15245500       0.52167900      21.14496800      -0.08055781      -0.19332126      -0.26628506
F        1.57197300       2.64911100      20.79405200      -0.16465603      -0.00949303       0.04920372
C        1.71528500       1.88513700      23.01214000      -0.02988085       0.12581077       0.64758740
F        2.40210800       1.11230200      23.88109700      -0.15684399       0.16779226      -0.15684039
F        1.68437600       3.16574200      23.48695500       0.30219206      -0.31295676      -0.50641326
F        0.42138100       1.44286800      22.97144200       0.27064102      -0.27967177      -0.38363793
C        4.28115700       3.60203300      21.76349200       0.17599562       0.26735927       0.17366518
F        4.45931200       3.72726400      23.11373900      -0.28024924      -0.40970223      -0.17738865
F        3.36858400       4.53137400      21.38545700      -0.00107575      -0.06057108       0.17913957
F        5.45978100       3.89425100      21.17271600       0.21689057       0.25994678       0.16856719
O        2.70597200       4.93618700      16.21078300       0.91006620      -0.26876360      -0.11831138
H        3.18096400       4.78557600      17.05306500      -0.45607054       0.12251873      -0.17144631
H       -4.88681300       4.42407100      16.46056700      -0.10408752       0.20713374      -1.07669324
O        1.17232700       6.98726800      30.58002700       0.17109253      -0.14214551      -0.44015747
H        0.70179000       7.80284600      30.32694900       0.02894291      -0.00295368       0.24326597
H        1.96585600       6.94410700      29.97246500      -0.09051055       0.04101013       0.31262303
O        9.51844600       5.17940300      25.98276000       0.18798005       0.16611333      -0.31981286
H        9.67361400       4.95178500      26.92303900      -0.08188501       0.02546935       0.16321107
H       10.32356700       5.69214500      25.69659200      -0.21247547      -0.09684626       0.16729347
O        8.97865600       4.58328200      28.80300700      -0.13411904      -0.15797270      -0.14863086
H        8.55009400       3.71692700      28.56743300       0.05926188       0.13878867       0.13779468
H        9.53138800       4.38769800      29.57905500       0.03858455      -0.00209442       0.18092854
O        8.45058700       5.52331600      11.78242900      -0.24994004      -0.05616061       0.47296423
H       11.43113700       5.55633600      13.01045000       0.64694051       0.00456011       0.47689596
H        8.78377700       4.61147600      11.77461300       0.07446687       0.00652752      -0.17170034
O        7.08126600       7.75085000      22.49450800       0.03436382       0.11041501      -0.05467194
H        7.22583000       8.45015200      21.80383200       0.03626850      -0.18269026       0.11480953
H        7.43091100       6.87286200      22.17611800       0.03944998       0.03559333       0.03886274
O       10.81114500      -0.43118700      15.13923000      -0.06777017       0.18428178       0.38056649
H       11.73043300      -0.18769500      15.33632000      -0.06725698      -0.00848413      -0.20941431
H       -0.34305900      -0.53245700      14.14889800       0.06692376      -0.04913738      -0.38894109
O        4.48157100       6.21118800      26.37582800      -0.00895104      -0.09495290      -0.17398656
H        3.94711100       6.22095900      25.53007900       0.20615878       0.01208984       0.27021679
H        5.40661700       6.48889400      26.15106000      -0.01391224      -0.04291583       0.03251674
O        0.67822700       4.98168200      18.16908400      -0.17371968       0.01079555       1.87317889
H        0.64753000       4.04211700      18.45174100      -0.05690983       0.28384158      -0.11398781
H       11.06099400       5.46654000      18.76488500       0.46430733      -0.34078124      -0.34004642
O        4.02502300       2.29034100      30.90963800      -0.10284825      -0.16467814      -0.59939670
H        4.18114400       3.26230100      30.59917200      -0.00086492      -0.04114125       0.00570528
H        4.68568600       1.76626400      30.37438700      -0.04679151       0.04339611       0.23917740
O        2.58885900       7.07422200      19.38668800       0.14039613      -0.06965428      -0.06367903
H        2.12602400       6.26514100      19.09152200      -0.03770934       0.14227612      -0.06490596
H        1.93646100       7.80546000      19.21877400      -0.03530228      -0.16503758      -0.11903849
O        7.76036900       7.18262800      28.81936700       0.17416448       0.05681419      -0.32738528
H        8.44509200       7.90896800      28.73196500      -0.02028343      -0.14620168       0.12921954
H        8.20029100       6.32267600      29.02462600       0.03428772       0.00061809       0.10170051
O        5.30912300       7.78296800      19.55083300       0.06431769       0.10896850       0.04441478
H        4.95453200       8.69018000      19.58483300       0.05978175      -0.14420187       0.04117365
H        4.49906200       7.28037300      19.29302300      -0.14012050       0.07202689      -0.01792573
O        7.53494700       0.41954600      21.11257700       0.04301456       0.15746620      -0.07358601
H        6.73844400       0.72028800      20.63902800       0.17513585      -0.12845335       0.22793603
H        7.75088100       1.16895800      21.74341100       0.00564717       0.01650494       0.04411859
O        5.56317800       1.10918500      29.02580000      -0.00589914       0.28310213      -0.16088474
H        5.57365500       0.11992400      29.25391600       0.01185844      -0.13245502       0.15029025
H        4.90436200       1.24615000      28.32284700       0.00269400      -0.03693956       0.09306006
O        7.37841700       1.62985200      25.14685300       0.09176268       0.10519104      -0.23500759
H        6.41185900       1.68085500      25.03870800       0.07251283      -0.03242007       0.12804300
H        7.62900500       0.63799000      24.98856400      -0.06431049      -0.00950640       0.09205578
O        8.28205900       2.51145300      22.69721000       0.06156507      -0.17737476      -0.20903996
H        8.01326600       2.29652200      23.63805000      -0.00014398      -0.01878808       0.24489194
H        9.25582600       2.46282500      22.67927200      -0.09002924       0.03652869       0.10800485
O        2.95818800       6.18803200      24.13264600       0.04678534       0.01171240      -0.34656673
H        2.94007500       5.29639800      23.74292600      -0.02059145       0.18315666       0.12714672
H        3.45336000       6.76848100      23.45198000      -0.09503724      -0.13806054       0.17383384
O        7.90055700       2.12071700      27.91439300       0.13003407       0.09482332      -0.29007034
H        7.06485700       1.80448800      28.35407600      -0.06836615      -0.07379992       0.05622386
H        7.75034700       2.00501800      26.93626700       0.02371740       0.01787431       0.38730227
O        0.49539900       8.79505700      18.76012600       0.13279080       0.24264531       0.29992846
H       -0.06336700       8.30666900      18.11358700      -0.04593276      -0.10613977      -0.09045656
H       -0.07499300       9.56045300      19.05618000       0.14684600      -0.22860760      -0.09658093
O        7.25395600       6.70306200      26.18094400      -0.02616920      -0.03613891      -0.26635191
H        8.02990800       6.09298300      25.98584900      -0.04163439       0.01559888       0.12342736
H        7.37482700       6.91321600      27.14758900       0.06559605      -0.01631417       0.23681147
O        6.55763700       6.83192500      14.08698900      -0.00695226       0.06961417      -0.03136232
H        4.94741500       6.83030600      15.25411300      -0.23048605       0.34488729      -0.03181432
H        6.83613300       8.36357900      18.15635800       0.00799459      -0.15123487      -0.21868982
O        9.75911200       5.43002000      15.48904900      -0.76857376      -0.03229820       0.21157250
H        7.25549800       6.14421100      14.09728600      -0.07900229       0.09540336      -0.10616960
H        9.09168900       4.76443600      15.73831800       0.22124653       0.06993041       0.19323436
O        8.16315300       5.36154200      21.84297800      -0.14768932      -0.15803750      -0.04506887
H        8.02542700       4.43809700      22.14500500       0.09089210       0.06244182       0.04945055
H        8.76823600       5.32370200      21.07582800       0.02349011       0.01472162      -0.00911508
O        0.55296000       6.81415100      25.34258900       0.04333029       0.18824899      -0.13358785
H        0.18557600       7.56473200      24.84653100      -0.00646273      -0.07598793       0.03575016
H        1.39460400       6.58915400      24.86433400      -0.15285981       0.07520169       0.08704368
O        5.59084100       8.24474100      29.83440300       0.05284234       0.05347895      -0.28249484
H        6.41985300       7.75353000      29.53449800      -0.09727667       0.05512651       0.20074095
H        5.64823200       8.29317900      30.82574600      -0.06241970       0.02065264       0.18311655
O        9.74932900       7.60650200      16.95243400      -0.06125037       0.39921368       0.35006189
H        9.67724400       6.74179700      16.43792600       0.04361517      -0.25457420      -0.15250345
H       10.12962300       8.23064600      16.25129200       0.00910839      -0.00850778      -0.11048237
O        8.13945900       8.80696300      24.69736000       0.06718602       0.16256829      -0.17844743
H        7.78975400       8.44035900      23.83076100       0.06433363       0.05980181       0.29864291
H        7.82834500       8.10859900      25.34184500      -0.03778596      -0.10511390       0.16113825
O        4.63725000       4.51882100      29.87408200       0.19449214       0.06580636      -0.35621351
H        4.95488700       4.22890300      28.97061700      -0.08586765       0.06731611       0.32845074
H        4.07882600       5.31357500      29.67805600       0.01710298      -0.06645428       0.17015305
O        7.41577800      -0.88751900      17.45483400      -0.31445108       0.28486797       0.20997893
H        8.26822400       8.20094100      17.41067700       0.29985596      -0.11377441      -0.15782307
H        7.22805700      -0.40113900      15.89315100       0.05658227      -0.20084380      -0.29664619
O        9.59239500       3.07156100      17.51798800      -0.37988772      -0.34599698       0.38677776
H       10.18579100       3.51105000      16.86317100       0.36515890       0.06708883      -0.17991964
H        8.95578500       2.55430800      16.99297200       0.33745937      -0.00921741      -0.07157489
O        3.41728300       6.84293000      28.96529100      -0.13096635      -0.10535507      -0.23477053
H        3.60285500       6.70135600      28.00325900      -0.03139420       0.06978334       0.30202185
H        4.16536200       7.41636000      29.28871600       0.06653707      -0.00233250       0.11017692
O        5.27233000       3.83033200      27.35849700      -0.01030344       0.01469848      -0.51355064
H        4.92982700       4.65700200      26.89982700       0.09580651      -0.16224176       0.17155996
H        6.23428300       3.83699900      27.20408500      -0.05708672       0.04328041       0.10053888
O        9.96281700       1.18064500      19.67624000       0.02984485       0.09300658       0.05040494
H        9.85220100       1.88186300      18.99706800      -0.01368444       0.02389532      -0.14659454
H        9.05631400       0.89604400      19.93185300       0.15860160      -0.02094472       0.00613568
O       10.89463300       7.80595100      21.71347300      -0.05767448       0.20795084       0.01193300
H       10.18850800       8.22438800      22.23930400      -0.00248523      -0.10912225      -0.05119067
H       11.36320800       8.54156000      21.27453000      -0.06865566      -0.08993051      -0.05471205
O        9.37896300      -0.30954500      28.33822300       0.15091451       0.11197721      -0.18830247
H        9.88451700      -0.39791500      27.51177200      -0.06980700      -0.00262047       0.12385930
H        8.90797300       0.56043600      28.25899300       0.06157895      -0.03567509       0.05205147
O        7.05206900       9.20540800      14.89253700      -0.33608486      -0.03931268       0.38014432
H        7.64086500       0.15550800      14.13532900       0.38065597       0.26315089      -0.53581383
H        6.91529400       8.23936300      14.59041300       0.06677464      -0.03732265      -0.23883133
O       10.10359100       6.12179500      19.76206100      -0.20782948       0.16215126       0.26600944
H       10.47452900       6.71701400      20.49328200      -0.08538274      -0.07385494      -0.25223912
H        9.60385200       6.73326500      19.18667300       0.09885224       0.01863844      -0.10207743
O       11.46242700       4.93037200      13.77789100      -0.19942043      -0.13513256      -0.85326693
H        3.15883300       5.75102500      15.79727800       0.02315947      -0.04157474       0.32670856
H       10.49927500       4.85605500      14.00309800       0.02527035       0.18001169       0.14650918
O        4.34947500       7.68302400      22.51399900       0.13300369       0.18132449      -0.15312566
H        4.27757300       7.54094800      21.55030000      -0.06045487      -0.03511870       0.07269538
H        5.33552300       7.69263600      22.66027500       0.00674503      -0.05919554      -0.04856043
H        2.59507700       4.25621300      10.90158300       0.35960943       0.36884226      -0.09582759
H        7.43480500       8.35928000       9.10984100       0.27827000      -0.14677401       0.11112566
252
Lattice="11.099 0.0 0.0 0.0 9.612 0.0 0.0 0.0 33.0" Properties=species:S:1:pos:R:3:REF_forces:R:3 system_type=Close0.75Pt REF_energy=-252983.62891327785 al_round=1 source=cp2k_sp stress_missing=T _cp2k_dir=cp2k_sp_round1 orig_idx=433 pbc="T T T"
Pt      11.06747900       9.25827800       0.00231000       0.17490085       0.28291547       0.02815718
Pt       2.79683700       9.26279600       0.00198000      -0.23588999      -0.00590068       0.21326788
Pt       5.51664700       9.26068100       0.00297000       0.37430585      -0.10882195       0.04108263
Pt       8.34711400       9.26097000       0.00231000      -0.23490680       0.14169453      -0.18622193
Pt       1.35818500       2.05168100       0.00132000      -0.00319228       0.09396714       0.12781212
Pt       4.19653200       2.05120100       0.00231000      -0.26813780      -0.23184359      -0.22864051
Pt       6.90923800       2.05293100       0.00000000       0.45760086      -0.05481695       0.05108731
Pt       9.74403400       2.04850900       0.00132000      -0.29608003       0.04917698      -0.10534890
Pt      11.06747900       4.45227800       0.00231000       0.16721274      -0.06392071       0.00246826
Pt       2.79683700       4.45689200       0.00198000      -0.30652900       0.26575850       0.29948520
Pt       5.51664700       4.45468100       0.00297000       0.40606309       0.34025468       0.13004795
Pt       8.34711400       4.45497000       0.00231000      -0.19810660       0.05772384      -0.05684401
Pt       1.35818500       6.85768100       0.00132000       0.34338474      -0.04216455      -0.40820122
Pt       4.19653200       6.85720100       0.00231000      -0.14112066       0.08384214       0.01724850
Pt       6.90923800       6.85883500       0.00000000       0.25181695       0.01662784       0.00250374
Pt       9.74403400       6.85450900       0.00132000      -0.41214427       0.04128935       0.01270536
Pt       1.38193600       0.68821900       2.37237000      -0.15727285      -0.14568849       0.29963998
Pt       4.16712000       0.69168000       2.37963000       0.00084744      -0.19999996      -0.01248014
Pt       6.93188000       0.68687400       2.37171000       0.06571894      -0.20086025      -0.06718550
Pt       9.71717500       0.69196800       2.37963000       0.19207736      -0.21133235       0.45908850
Pt      11.09367200       3.09573700       2.37963000       0.00520906      -0.22741718       0.73946115
Pt       2.77919000       3.09045000       2.37105000      -0.33153864      -0.23297385       0.21852630
Pt       5.54550400       3.09429500       2.37963000       0.21306425      -0.34396992      -0.21885746
Pt       8.32902300       3.08910500       2.37039000       0.15744151      -0.08960809       0.20393220
Pt       1.38193600       5.49421900       2.37237000      -0.07713721      -0.10241425       0.57490539
Pt       4.16712000       5.49768000       2.37963000      -0.04415613      -0.26211936      -0.16923002
Pt       6.93188000       5.49287400       2.37171000       0.41236127      -0.30216841      -0.12241640
Pt       9.71717500       5.49806400       2.37963000      -0.03528479      -0.20132562       0.64044333
Pt      11.09367200       7.90173700       2.37963000       0.04166627      -0.30228771       0.44133812
Pt       2.77919000       7.89645000       2.37105000      -0.06358544      -0.15938578       0.41925903
Pt       5.54550400       7.90029500       2.37963000      -0.14454126      -0.16561762       0.04887462
Pt       8.32902300       7.89510500       2.37039000       0.24191820      -0.27046208       0.05053504
Pt      11.14008000       1.40959200       4.92490700      -0.24377299       0.11118222      -0.52920352
Pt       2.74347200       1.42508000       4.70769600      -0.11063406       0.11317020       0.02721410
Pt       5.53640600       1.41285500       4.71764300      -0.25761684       0.29934379      -0.31944982
Pt       8.35748800       1.47453900       4.65616200      -0.18481554       0.13842563      -0.26047797
Pt       1.41922300       3.81011700       4.84881200       0.06620180       0.04476188      -0.10341800
Pt       4.15017800       3.79828700       4.63749400      -0.13109799       0.09763097      -0.08095222
Pt       6.95742900       3.86952400       4.66150200       0.14189611       0.04519948      -0.27716957
Pt       9.76757200       3.81950700       4.82906800       0.03886737      -0.07127818      -0.24566327
Pt      11.17838100       6.19043600       4.86294300      -0.01811239       0.11023349      -0.19981484
Pt       2.81891500       6.18694100       4.74655200      -0.10959791       0.07493892       0.10246824
Pt       5.59189800       6.26621000       4.64844800       0.29947800       0.15202266       0.06566084
Pt       8.38073500       6.22406700       4.78091800       0.02886064       0.14232034      -0.02691020
Pt       1.37832100       8.57006900       4.74384200       0.03339400       0.04464207       0.01122749
Pt       4.13237700       8.59595600       4.77599400       0.02181324       0.00954188      -0.20207947
Pt       6.93891100       8.63587400       4.63117600      -0.27579249       0.30882757      -0.05598372
Pt       9.74408000       8.62438000       4.74344100       0.05864327       0.13589104      -0.26351547
Pt      11.17687400      -0.27387500       7.18676000       0.56928959      -0.13450984      -0.60248613
Pt       2.66848900      -0.11358700       6.98318800       0.18899358      -0.12647412      -0.58455835
Pt       5.38964700      -0.12292500       7.08104500       0.18135483      -0.27968925       0.04335909
Pt       7.98698200      -0.03242200       6.87275300       0.39393571       0.65800191      -0.40899261
Pt       1.26265100       2.12930400       7.36675100      -0.19495340       0.77222215      -0.75734729
Pt       3.98479900       2.24531300       6.98776800       0.10326939       0.19713266       0.21655838
Pt       6.76785600       2.35355800       6.93541400       0.14596359      -0.00170053       0.47596060
Pt       9.55126500       2.19580300       7.13563300       0.08641684       0.24419003      -0.26116651
Pt      11.10598900       4.69695600       7.16600700       0.73846356      -0.11637225       0.07084367
Pt       4.08705700       6.51283800      15.77020800       1.44441347       1.43531896       0.32922721
Pt       5.47955700       4.70704400       6.86999500      -0.07200169      -1.00843044      -0.22400532
Pt       8.24406200       4.67663700       7.15421500      -0.22313320      -0.37392636       0.38008724
Pt       1.57036100       6.46638300       8.56410300       0.07353561       0.33092311      -0.21307248
Pt       4.12238400       7.32379800       7.74689000      -1.69031431      -0.20305597       0.79003887
Pt       6.81407300       7.09610400       7.02719800      -0.24531154       0.18175747       0.50785925
Pt       9.64383500       6.94026000       7.10235300       0.19649349      -0.21341752      -0.07720252
O       14.82576500       5.74497100       6.61223800      -0.62711525       0.65738690      -0.21625345
O        7.85872200       4.20611200       9.18035500       0.69357107       1.04010130      -0.81358760
O        4.17614500       2.80681700       8.90328600      -0.00516535      -0.47015504      -0.60658087
O        6.99509100       3.10446600       9.21637200      -0.30437287      -1.02519764       0.23920209
O        3.49593900      -1.18867500       9.51929300       0.31465317       0.32906421      -0.08879717
O        4.80339500       4.01784100       8.87301700       0.00979642       0.65680943       0.11242407
O        9.34157700      -0.82013400       7.97977500      -1.19317810       0.06946607       1.21692276
O        3.35442100       5.89807200       9.15739200      -0.24341098      -0.00791334       0.33894547
O       11.12675600       7.53201600       8.34914600      -0.12471702      -0.50811636       0.19258078
O        6.23140600       8.94957500       9.48353900      -0.35560365       0.97863187      -0.35539642
O        2.22756200      -1.53051500       9.74277100      -0.07387603       0.08345956       0.52532784
O        6.72237300       7.79175800       9.43343500       0.53605705      -0.95712819      -0.51641331
O        8.48770300       0.94306400      13.18498800       0.12705159      -0.07220378       0.32885646
H        7.76083100       1.25683100      12.59125100      -0.00145267       0.02419717       0.01317742
H        9.27712200       0.65180600      12.62830600      -0.05553429      -0.01569247      -0.00466964
O       -1.81173600       1.73454900       9.10751300       0.46792127       0.21155450       0.08867221
H        3.71315500       4.98677000       8.91664200       0.26025171      -0.24881596       0.20561782
H       -1.65293000       0.77174100       9.20543500       0.00059033       0.12390970       0.09257823
O        5.18684900       7.88466000      16.51002300      -0.01222508       0.33463373       0.49138259
H        6.55204200       8.82159400      15.45039300      -0.31877619      -0.06536773      -0.39505774
H        0.06098200       2.73261700       9.35469800       0.01790414       0.15611380       0.17516053
O       -0.37864300       9.80801300      11.99626000       0.15539749       0.19604817       0.18054391
H       -0.48153100       8.86568400      11.70144000      -0.01968488      -0.09856376       0.03429081
H        0.09956100       9.77559100      12.85055900      -0.04303307      -0.01415495      -0.11383457
O        7.39759100       4.71143400      11.92084100       0.10213657       0.01835254       0.00756881
H        6.80407100       5.44540700      12.15673000      -0.13262214      -0.05935186      -0.11106909
H        7.63568900       4.85806700      10.97537000      -0.08922706       0.01726702       0.04927108
O       10.11299200       7.29079400      11.19043700       0.06695359      -0.26997614       0.01973219
H       10.39612400       7.01408800      10.29783600      -0.02713440       0.00416519       0.20991773
H       10.08661700       6.49609600      11.77333400       0.03231774       0.19097539      -0.11117914
O        6.63056200       2.17331300      11.71313000       0.03453197       0.05612924       0.26266289
H        6.77314000       3.14950500      11.89953100      -0.05136859      -0.10333059      -0.08260338
H        7.47817100       2.45345800       9.80668200       0.18692487      -0.03874653      -0.44912136
S        3.22699000       4.39183300      12.80659600      -1.38461578      -1.04005656      -1.16634864
O        5.50395100       8.72093900      15.39767100       0.28160112       0.44614248      -0.27778046
O        0.90247800       3.17956800       9.07495200      -0.34045214       0.03615177      -0.37799693
O        4.26386800       5.48293900      12.85798900       1.54366629       1.07250851       0.73657432
H        5.67993200       2.05694500      11.55874200      -0.01669006      -0.02787847      -0.06100714
C        2.78945900       3.88150200      14.48705200      -0.11778687      -1.23065913      -0.74221686
C        3.59624000       2.73890000      15.22085500       0.09928984       0.17170137      -0.74592491
O        3.43187400       3.00891700      16.57594800      -0.51270063      -0.22860143       0.65955589
F        1.46750600       3.51524000      14.50934400       0.26404306      -0.51879158       0.13487751
F        2.84664900       5.01448400      15.33474300      -1.52825869      -1.02159706      -0.00301745
F        3.08269100       1.51818700      14.87666200       0.19344262      -0.09135336       0.24703212
F        4.89485300       2.70554900      14.84080800      -0.22652398       0.27076032      -0.29876221
C        4.00960800       2.29398500      17.60898300       0.58131670      -0.15275439       0.69051866
C        5.37402600       2.93828700      18.01602600       0.74572127       0.12185796      -0.67398646
C        2.98836400       2.34321900      18.82902200      -0.74986692       0.25760810      -0.88223863
O        3.58372400       1.86908300      19.96555400       0.40103247      -0.37274519       0.26401015
F        6.22418000       2.96904600      16.96068400      -0.31518642       0.36291998       0.02185952
F        5.98774000       2.21695400      18.98637100       0.14768675      -0.27307329       0.43581282
F        5.19891700       4.21300500      18.44981700      -0.35805494      -0.14234451       0.33334869
F        4.25622100       0.97881500      17.31974400      -0.04763895       0.07484482      -0.15467295
F        1.92065200       1.56347800      18.47453100       0.08644461       0.05252250       0.31175605
F        2.50817400       3.61749300      18.96291000       0.30788911       0.22927917       0.40444279
C        3.36787100       2.15089300      21.33739600       0.09447056      -0.05098035       0.15072528
C        1.89409800       1.84102400      21.76998600      -0.52433951      -0.29549588      -0.08380768
F        4.19139800       1.24763800      21.96204300      -0.14375964       0.08494206      -0.01830986
F        1.67052300       0.52701800      21.42768000       0.32447633       0.14193570      -0.09265639
F        1.03015700       2.63884700      21.07031500       0.25508328      -0.09376865      -0.27511063
C        1.48888300       1.96924800      23.28013500      -0.14329479       0.07321577       0.72118009
F        2.32351900       1.26946500      24.07792300      -0.23492223       0.19897975      -0.37261458
F        1.44979200       3.26414800      23.69968900       0.26196458      -0.12178751      -0.48954219
F        0.22060100       1.46893700      23.43854700       0.31625445       0.26217849      -0.02100386
C        3.90183800       3.56492500      21.76396800       0.50429416       0.53150671      -0.03229460
F        4.06104100       3.61711900      23.12419600       0.02482709       0.08557146      -0.34099567
F        3.07383800       4.57362100      21.40227700       0.07134246      -0.35071907       0.26108423
F        5.11558400       3.77889100      21.21946900      -0.26425389      -0.22004942      -0.32313524
O       -1.27695400       2.47762900      15.75855600       0.07209631       0.23805280       0.27781389
H       -1.38141000       2.74857000      16.70744600      -0.01917786      -0.08504850      -0.28096349
H       -2.11053800       2.02404700      15.53112400       0.00807121       0.01360422      -0.12902157
O        1.20173200       6.97090300      30.58076700      -0.08104683       0.01607351      -0.33072925
H        0.75940700       7.80327900      30.33224500       0.01440229       0.00300151       0.23367576
H        2.00554800       6.91430500      29.98811200      -0.03008499       0.03276666       0.28306665
O        9.42045500       5.22304300      25.79758500       0.00793802      -0.07007851      -0.07046829
H        9.59149400       4.93760400      26.71915500      -0.06149154       0.04729442       0.12324738
H       10.22502200       5.74686600      25.53029200      -0.18170450      -0.07327747       0.13949573
O        9.01367900       4.54226900      28.65268800       0.08441241       0.01471854      -0.08070539
H        8.59299900       3.66026500      28.46564900       0.04175935       0.11125524       0.10761816
H        9.62994700       4.37417200      29.38609600       0.01384076      -0.00644473       0.13981557
O        9.93066800       5.43772800      13.43373700      -0.11685202      -0.05825349       0.08490400
H       10.66414800       5.63060400      14.07974000      -0.10249652      -0.08109106      -0.16511420
H        9.87202400       4.46893300      13.35157300       0.01483115       0.04815265      -0.03230489
O        7.06568400       7.78057600      22.24140600      -0.04678842      -0.05300072      -0.14133767
H        7.35116600       8.49175800      21.60970800       0.01706441      -0.07380352      -0.01337796
H        7.45986800       6.90483200      21.96604200       0.02081308       0.04998482      -0.00595468
O       11.45207000       0.53672700      14.88955100       0.08122835       0.10912997       0.19190047
H       12.38909000       0.74336700      15.04282900      -0.12173660       0.03982331      -0.07442213
H       -0.16198600       1.34997000      15.18717800       0.13207038      -0.08048273      -0.11576599
O        4.47457700       6.14103800      26.40370800      -0.04749496      -0.09542342      -0.21377285
H        3.94715400       6.23241000      25.55760700       0.16201036       0.00010387       0.19909493
H        5.39978300       6.44767600      26.20874800      -0.00274182      -0.02074675      -0.00383917
O        0.15201600       4.89042700      17.65233200       0.00893870      -0.03208377       0.38213795
H        0.96319600       4.45215600      17.96375600      -0.13684955       0.12700839      -0.08604660
H       10.87550800       5.34490500      18.44146900       0.16604803      -0.06863046      -0.12416321
O        4.04042200       2.26464900      30.90617100       0.02224570      -0.01892795      -0.50957263
H        4.20879100       3.23388500      30.58997400       0.01682941       0.02126765      -0.00830004
H        4.71183300       1.73662500      30.39074300       0.01188004       0.01355331       0.19844238
O        3.00095200       6.40390200      17.63676200      -0.34174334      -0.00270069       0.87504315
H        3.53787100       6.76947100      18.41594400      -0.04422401      -0.21828153      -0.49559148
H        2.22484500       7.02635400      17.68784900       0.16601203      -0.10887697      -0.32734002
O        7.82500500       7.15946000      28.78960300       0.18164074       0.01402537      -0.17193174
H        8.52956800       7.87152900      28.77772800      -0.02780957      -0.12085163       0.08258538
H        8.23836700       6.27736600      28.95155000       0.01992657       0.01803423       0.07889945
O        3.86953800       7.83827800      19.60357400      -0.01727524       0.27655919       0.20133642
H        4.47153400       8.47275700      19.16810900      -0.07473992      -0.02786562      -0.06966610
H        2.95297100       8.22500400      19.53498700      -0.04683110      -0.08446486      -0.15797168
O        8.00505300       0.35815000      20.88014600      -0.17121080       0.00995377       0.24577485
H        7.68038500       0.46820600      19.95297600       0.05511623       0.00675429      -0.16157739
H        7.90584900       1.21290300      21.37253500       0.01260046      -0.08151683      -0.10693476
O        5.62490600       1.08515400      29.04120900       0.04763843       0.11972240      -0.21693119
H        5.63197700       0.09509400      29.26267400       0.01196437      -0.09834419       0.12206827
H        4.96715100       1.23056400      28.33850400       0.00993680      -0.04180100       0.06496767
O        7.38874100       1.67767300      25.06578700       0.05106777       0.05941614      -0.04591374
H        6.41784900       1.73672900      25.01574400       0.07951549      -0.03228020       0.07180732
H        7.61140700       0.69269300      24.87043600      -0.08950268      -0.00426957       0.05977404
O        8.30218100       2.64595500      22.56982600      -0.02140186      -0.17386984       0.06118763
H        7.96819200       2.40853000      23.47991300       0.03695961      -0.00984475       0.10220599
H        9.27305700       2.59631300      22.65291400      -0.15240164       0.02661349       0.05571890
O        2.97441800       6.27765700      24.13901200      -0.15714584      -0.12926685      -0.26909271
H        2.93862000       5.36889300      23.79216100      -0.00332341       0.18441496       0.10414048
H        3.46489300       6.81102800      23.41558500      -0.03791040      -0.09441863       0.11839777
O        7.96497900       2.03325600      27.88652400       0.09772198       0.02832482      -0.35449653
H        7.13031100       1.72813100      28.33772500      -0.05464212      -0.05138453       0.02548786
H        7.80649300       1.92551100      26.91027400       0.02011631      -0.00288683       0.28332273
O        1.23260200       8.16617500      18.87211800       0.09465260       0.17296686       0.17003478
H        0.52617700       7.52241900      19.13936600       0.06017102       0.03774637      -0.14367943
H        0.73118100       9.01781900      18.88347700      -0.00430814      -0.14566226      -0.12310443
O        7.20135400       6.77943500      26.15537700      -0.08876734      -0.07520272      -0.09297315
H        7.95338700       6.15451700      25.91708200      -0.03075862       0.02489548       0.10269810
H        7.38211200       6.98509700      27.11378900       0.06666922      -0.03104093       0.15135725
O        8.14355700       6.11160200      15.45439000      -0.04544477       0.03042387       0.24567150
H        8.72713200       5.80551600      14.70583300      -0.05006504       0.03499169      -0.08374238
H        7.27903300       6.31194800      15.06131100      -0.00823987       0.05252147      -0.03373339
O        8.02599700       5.73599500      18.09993100       0.06064667      -0.10116263       0.43975740
H        8.10684000       5.85501900      17.10615500      -0.04775310       0.06923981      -0.26274825
H        7.07538800       5.82568600      18.28832200       0.13799934       0.05418189      -0.10733842
O        8.09754000       5.37133100      21.54590200      -0.03302685      -0.17231123       0.07076139
H        8.07424900       4.48921900      21.98535600       0.00652649       0.09223165      -0.03351176
H        8.85755800       5.34625400      20.93293000      -0.03150939       0.00216333      -0.00707876
O        0.45415000       6.89155200      25.18348300      -0.01763571       0.20229133      -0.21529854
H        0.08949800       7.56851900      24.58694300      -0.01151649      -0.09585845       0.00339900
H        1.33705000       6.67288200      24.78575800      -0.11565234       0.05364453       0.05637453
O        5.65597100       8.20805100      29.83111500      -0.04985832      -0.17256269      -0.18765866
H        6.48311200       7.72004800      29.52201400      -0.06818720       0.03431497       0.16489360
H        5.71993200       8.24659600      30.82190600      -0.05778966       0.04534758       0.12345616
O       10.13234700       8.52083700      16.60118500       0.11535050       0.04887410       0.09388178
H       10.47468500       7.64621300      16.30044500      -0.02895217       0.08396812      -0.11042735
H       10.73817500       9.14767300      16.11833400      -0.03770626      -0.05874765      -0.14762967
O        8.03806500       8.81420300      24.54012300       0.15351904       0.13337342      -0.12188881
H        7.64528700       8.44516600      23.69813900       0.02530686       0.02951678       0.16127554
H        7.75646000       8.14024400      25.22285000      -0.02244676      -0.05104720       0.07600593
O        4.68873100       4.47251100      29.86081800      -0.02609876       0.15522162      -0.32451078
H        4.97320000       4.16397700      28.95460900      -0.05662289       0.05933695       0.24835316
H        4.13880200       5.27660400      29.67332800       0.01839419      -0.07486796       0.15333083
O        8.01348800       0.28212100      18.14791600      -0.07946972       0.14902629       0.24647265
H        8.91959800       9.52832400      18.02619200      -0.14372519      -0.00472826      -0.12233773
H        7.63341300       0.22935700      17.24349500       0.03432989      -0.04312203      -0.19803409
O        9.07017300       3.01595300      18.45784700       0.00760738      -0.06152290       0.33686545
H        8.65272800       3.91103800      18.41096900       0.02332351      -0.03092883      -0.08797647
H        8.34541800       2.35835700      18.43302900       0.11706285      -0.02420591      -0.11070657
O        3.46946400       6.79622000      28.98528600       0.03210537      -0.04650869      -0.27129254
H        3.65369000       6.64205400      28.02264700      -0.02463271       0.06940334       0.24509197
H        4.21751300       7.37397500      29.29940100       0.06164117      -0.00544508       0.09289962
O        5.23828300       3.72011000      27.32622200       0.14847608      -0.18394445      -0.28517547
H        4.89880800       4.55218500      26.87581900       0.08988526      -0.11629049       0.12580306
H        6.19644300       3.71288200      27.15106200      -0.04823647       0.05565050       0.07983584
O       10.50333400       0.62700900      19.59975200       0.09507529       0.14647113       0.11265546
H       10.40226900       1.55116700      19.29590200      -0.09048073      -0.04962744      -0.09403656
H        9.69498000       0.47421400      20.14783600       0.07681583      -0.00129995      -0.15698797
O       10.56262600       8.02885300      21.96455900       0.12565496       0.22433082       0.12652297
H        9.78362000       8.35351500      22.45489100       0.00734461      -0.02203796      -0.02356056
H       11.04916900       8.83076600      21.68960900      -0.16097112      -0.11734464      -0.00626269
O        9.48185200      -0.32186000      28.58122400       0.00127527       0.02334819       0.01675794
H       10.19942700      -0.38427300      27.92792400      -0.10830721       0.00886876       0.05625471
H        9.00471700       0.52132100      28.36793300       0.06187309      -0.03395708       0.04521799
O        7.91151100       9.39533100      15.36310500       0.32350085       0.05837690       0.40368431
H        8.12481200       0.18922800      14.42982400       0.00580812       0.00327764      -0.10923024
H        8.72431000       8.89772100      15.67718100      -0.23984486       0.02803120      -0.14352619
O       10.19437100       6.53326000      19.70878700       0.11724694       0.12023868       0.38356234
H       10.20422700       7.07681100      20.54894200      -0.09434972      -0.08183411      -0.22765835
H        9.35038400       6.67869600      19.21929500      -0.05089808       0.00331827      -0.08164590
O       11.47853500       6.31860100      15.44756400      -0.05849774       0.03768569       0.45338991
H        1.32304700       6.52353300      15.30155200      -0.16043685       0.13323715      -0.02360839
H       11.44537400       5.70676200      16.25014200       0.07066832       0.22520397      -0.34758026
O        4.32058700       7.60661600      22.35891700      -0.06931129       0.20271607       0.07142731
H        4.10287200       7.64945500      21.40012600       0.04424046      -0.02136793       0.02030709
H        5.31195100       7.64241100      22.39020900       0.01300618      -0.01486869      -0.00610586
80
Lattice="11.099 0.0 0.0 0.0 9.612 0.0 0.0 0.0 33.0" Properties=species:S:1:pos:R:3:REF_forces:R:3 system_type=Dry1.0PtO2 REF_energy=-216267.0148468018 al_round=1 source=cp2k_sp stress_missing=T _cp2k_dir=cp2k_sp_round1 orig_idx=493 pbc="T T T"
Pt      11.06747900       9.25827800       0.00240000       0.25830538       0.07030631      -0.01382225
Pt       2.79683700       9.26279600       0.00191000      -0.19901523       0.12600926       0.06616375
Pt       5.51664700       9.26068100       0.00303700       0.30104843       0.03976880       0.03365626
Pt       8.34711400       9.26097000       0.00240000      -0.18596688       0.01472522       0.00406131
Pt       1.35818500       2.05168100       0.00127300       0.23333689       0.04378383       0.02630650
Pt       4.19653200       2.05120100       0.00240000      -0.30683702       0.09543473       0.01783420
Pt       6.90923800       2.05293100       0.00000000       0.27066622       0.01287506       0.10657995
Pt       9.74403400       2.04850900       0.00127300      -0.18662714       0.05977815       0.01606425
Pt      11.06747900       4.45227800       0.00240000       0.25529359       0.11234488      -0.04475314
Pt       2.79683700       4.45689200       0.00191000      -0.18304713       0.13686909      -0.00217155
Pt       5.51664700       4.45468100       0.00303700       0.32399142       0.00004474       0.03247355
Pt       8.34711400       4.45497000       0.00240000      -0.14402190       0.07634377      -0.00507793
Pt       1.35818500       6.85768100       0.00127300       0.27248913       0.01664429       0.11055796
Pt       4.19653200       6.85720100       0.00240000      -0.22693998       0.05992573      -0.07826079
Pt       6.90923800       6.85883500       0.00000000       0.26213581       0.09850257       0.08465409
Pt       9.74403400       6.85450900       0.00127300      -0.23841430       0.02096632      -0.05198051
Pt       1.38193600       0.68821900       2.37237900      -0.00662676      -0.28324097       0.28517547
Pt       4.16712000       0.69168000       2.37972600      -0.18366523      -0.38450131       0.51573865
Pt       6.93188000       0.68687400       2.37174300      -0.11007562      -0.06512142       0.15567002
Pt       9.71717500       0.69196800       2.37972600      -0.17034691      -0.42224716       0.18393365
Pt      11.09367200       3.09573700       2.37972600       0.06443442      -0.52299173      -0.80431878
Pt       2.77919000       3.09045000       2.37110600       0.10328379      -0.39309136       0.13379251
Pt       5.54550400       3.09429500       2.37972600      -0.22359035      -0.19770088       0.19753787
Pt       8.32902300       3.08910500       2.37046900      -0.41550727      -0.27180419      -0.28428690
Pt       1.38193600       5.49421900       2.37237900       0.19641121       0.13522564      -0.04658017
Pt       4.16712000       5.49768000       2.37972600      -0.29616077      -0.07132549       0.40763198
Pt       6.93188000       5.49287400       2.37174300      -0.55915430      -0.23341093      -0.82168709
Pt       9.71717500       5.49806400       2.37972600       0.04469812      -0.21424593      -0.31365198
Pt      11.09367200       7.90173700       2.37972600      -0.16261509      -0.24051695       0.32155350
Pt       2.77919000       7.89645000       2.37110600      -0.10737082      -0.21941282       0.27875028
Pt       5.54550400       7.90029500       2.37972600      -0.28126174      -0.19736355       0.24135616
Pt       8.32902300       7.89510500       2.37046900      -0.09657578       0.34630911      -0.35669277
Pt      11.06637000       1.44897400       4.72059400      -0.14933483      -0.47940845       0.19502333
Pt       2.60610400       1.37403200       4.79987100       0.49721282       0.79967999      -0.09706686
Pt       5.36376100       1.55744100       4.75451900       0.42105777      -0.27761334      -0.35693239
Pt       8.25757100       1.49873700       4.70598300      -0.42435598       0.15617242       0.44537732
Pt       1.34654700       3.78346000       4.60136600       0.40512516       0.11718318       0.63233819
Pt       4.01221000       3.93513500       4.77413700       0.20380571      -0.35272915       0.23220817
Pt       6.82501900       3.94528400       4.65952200       0.43138898      -0.50390952       0.44972763
Pt       9.68676200       3.82216900       4.59105000      -0.33722334       0.07515284       0.52956553
Pt      -0.07035800       6.14312300       4.73450200      -0.03175570       0.86736532      -0.22355435
Pt       2.60250800       6.21090600       4.83787400       0.32420688       0.14107490      -0.37747088
Pt       5.37804400       6.27907600       4.74958400      -0.01875774       0.25400136      -0.02357188
Pt       8.15209900       6.36457500       4.50948800      -0.99865305       1.00974119      -2.92576341
Pt       1.17750700       8.61362400       4.72258300       0.09862238      -0.12323967      -0.20881164
Pt       3.96975400       8.62883800       4.81690300       0.49537243       0.71789782      -1.36192116
Pt       6.76854900       8.77607600       4.68327400       0.14502360       0.25575948       0.42268014
Pt       9.54097400       8.68092200       4.82445000       0.22262515       0.10950998      -0.29507216
Pt      10.94664100      -0.07372500       7.09822500      -0.81915919      -0.14014673       0.34739514
Pt       2.46340600      -0.21391800       7.03070600       0.14892705       0.73400013      -0.06860629
Pt       5.53392600      -0.06633000       7.05978800       0.42962469      -0.22612237      -0.83341235
Pt       8.22327700       0.27734200       7.27084000       0.55466773      -0.59977311      -0.57760557
Pt       1.31142200       2.07835400       8.12623800      -0.77741732       0.89539497      -0.70460933
Pt       3.90829600       2.47651000       7.01746400      -0.70896632       0.51435283      -0.41169227
Pt       6.88701800       2.35408200       7.08834600      -1.59142916      -1.05995947      -0.44311938
Pt       9.85880000       2.38696100       6.92142500       0.15945160       0.30691826      -0.03984079
Pt       0.45366000       4.42990900       6.94473100       0.64999293      -0.65723727       0.15758858
Pt       8.31840700       1.06871700      16.19083300      -0.74499879      -0.52708853      -0.76615846
Pt       5.61435400       4.55294400       7.07966800      -0.94221579       0.32561738      -0.96158854
Pt       8.17481800       4.42309500       7.25749000       1.21137123       0.53431641       0.82186450
Pt       1.06154700       6.99295900       7.04461800      -0.49442009      -0.34982432       0.32849445
Pt       3.85835800       7.22734000       7.03751500       0.30013621      -0.87483283       0.16627634
Pt       6.69888900       7.16195400       6.94884500      -0.67438087       0.75894857       0.14172179
Pt       9.37302100       7.29900600       7.42062400       0.39031663       0.58522529      -0.25599859
O        6.19093800       2.79485400       9.78107400      -0.06650210      -0.90748276      -0.74104804
O        3.84701600       7.54126400      10.19324200       0.06361630       0.03072828       0.37941669
O        4.83193200       5.91569800       8.12928500      -1.15046334       0.74700374       1.12872054
O        7.89491400       8.41075300       8.46522200       0.39843463      -0.98988250       0.14553628
O        9.50722400       5.33538100      10.36345900       0.15084561       0.08384831       0.00953211
O        0.18807600       1.11401600       9.26010900       1.00287686       1.65192105      -0.42197925
O        8.36103700       5.15364300       9.93229900      -0.09223216      -0.34042283      -0.69240945
O       11.21040500       8.62603500       9.18429000      -0.39957054      -0.66991383      -0.13234806
O        7.23395000       0.73328600      10.19149100       0.64069993      -0.28970164       0.40353056
O        2.76602300       7.89779300       9.71513700       0.02118024       0.19881879      -0.22416679
O       11.56720600       7.36946100       9.07133500       0.55815826      -0.68358953      -0.00484242
O        5.55756900       3.84547100       9.85510100      -0.15810949       0.72228412       0.03450524
O        6.23088500       0.06339800       9.96933600      -0.42495453       0.26724562      -0.15811669
O        4.01623500       0.74746100       7.97557700      -0.45354263       0.37722560       1.66557258
O        7.18873200       0.26232900      15.06838600       0.65968496       0.60587433       0.73381038
O       -2.24450700       5.93294300       6.13206300       2.37779958      -1.60157010       3.43803158
64
Lattice="9.838 0.0 0.0 0.0 14.0 0.0 0.0 0.0 17.04" Properties=species:S:1:pos:R:3:REF_forces:R:3 system_type=FORCED_Chair4x4 REF_energy=-9921.92882453121 al_round=1 source=cp2k_sp REF_stress="0.003338735911598621 -2.6612395041332256e-05 0.010718556042054975 1.4402942515637762e-13 -4.737630213192836e-14 1.7056298308492245e-14" _cp2k_dir=cp2k_sp_round1 orig_idx=508 pbc="T T T"
C        7.37853600       7.00000000       0.00000000      -0.00113437       0.00000000       0.43247912
C        8.60829300       7.00000000       0.71000000      -0.00135806       0.00000000      -0.43249867
C        8.60829300       7.00000000       2.13000000      -0.00135600       0.00000000       0.43250021
C        7.37853600       7.00000000       2.84000000      -0.00113437       0.00000000      -0.43247861
C        7.37853600       7.00000000       4.26000000      -0.00113437       0.00000000       0.43247912
C        8.60829300       7.00000000       4.97000000      -0.00135651       0.00000000      -0.43250021
C        8.60829300       7.00000000       6.39000000      -0.00135651       0.00000000       0.43250021
C        7.37853600       7.00000000       7.10000000      -0.00113437       0.00000000      -0.43247912
C        7.37853600       7.00000000       8.52000000      -0.00113437       0.00000000       0.43247912
C        8.60829300       7.00000000       9.23000000      -0.00135651       0.00000000      -0.43250021
C        8.60829300       7.00000000      10.65000000      -0.00135806       0.00000000       0.43249867
C        7.37853600       7.00000000      11.36000000      -0.00113437       0.00000000      -0.43247912
C        7.37853600       7.00000000      12.78000000      -0.00113437       0.00000000       0.43247861
C        8.60829300       7.00000000      13.49000000      -0.00135806       0.00000000      -0.43249867
C        8.60829300       7.00000000      14.91000000      -0.00135806       0.00000000       0.43249867
C        7.37853600       7.00000000      15.62000000      -0.00113437       0.00000000      -0.43247861
C        4.91902400       7.00000000       0.00000000      -0.00000000       0.00000000       0.43244776
C        6.14878000       7.00000000       0.71000000      -0.00055227       0.00000000      -0.43246421
C        6.14878000       7.00000000       2.13000000      -0.00055227       0.00000000       0.43246524
C        4.91902400       7.00000000       2.84000000      -0.00000000       0.00000000      -0.43244776
C        4.91902400       7.00000000       4.26000000      -0.00000000       0.00000000       0.43244827
C        6.14878000       7.00000000       4.97000000      -0.00055227       0.00000000      -0.43246473
C        6.14878000       7.00000000       6.39000000      -0.00055227       0.00000000       0.43246473
C        4.91902400       7.00000000       7.10000000      -0.00000000       0.00000000      -0.43244827
C        4.91902400       7.00000000       8.52000000      -0.00000000       0.00000000       0.43244776
C        6.14878000       7.00000000       9.23000000      -0.00055227       0.00000000      -0.43246473
C        6.14878000       7.00000000      10.65000000      -0.00055227       0.00000000       0.43246473
C        4.91902400       7.00000000      11.36000000      -0.00000000       0.00000000      -0.43244776
C        4.91902400       7.00000000      12.78000000      -0.00000000       0.00000000       0.43244776
C        6.14878000       7.00000000      13.49000000      -0.00055227       0.00000000      -0.43246473
C        6.14878000       7.00000000      14.91000000      -0.00055227       0.00000000       0.43246473
C        4.91902400       7.00000000      15.62000000      -0.00000000       0.00000000      -0.43244724
C        2.45951200       7.00000000       0.00000000       0.00113591       0.00000000       0.43247861
C        3.68926800       7.00000000       0.71000000       0.00055227       0.00000000      -0.43246473
C        3.68926800       7.00000000       2.13000000       0.00055227       0.00000000       0.43246524
C        2.45951200       7.00000000       2.84000000       0.00113591       0.00000000      -0.43247810
C        2.45951200       7.00000000       4.26000000       0.00113591       0.00000000       0.43247861
C        3.68926800       7.00000000       4.97000000       0.00055227       0.00000000      -0.43246524
C        3.68926800       7.00000000       6.39000000       0.00055227       0.00000000       0.43246524
C        2.45951200       7.00000000       7.10000000       0.00113591       0.00000000      -0.43247861
C        2.45951200       7.00000000       8.52000000       0.00113591       0.00000000       0.43247861
C        3.68926800       7.00000000       9.23000000       0.00055227       0.00000000      -0.43246524
C        3.68926800       7.00000000      10.65000000       0.00055227       0.00000000       0.43246473
C        2.45951200       7.00000000      11.36000000       0.00113591       0.00000000      -0.43247861
C        2.45951200       7.00000000      12.78000000       0.00113540       0.00000000       0.43247810
C        3.68926800       7.00000000      13.49000000       0.00055227       0.00000000      -0.43246473
C        3.68926800       7.00000000      14.91000000       0.00055227       0.00000000       0.43246524
C        2.45951200       7.00000000      15.62000000       0.00113540       0.00000000      -0.43247810
C        0.00000000       7.00000000       0.00000000      -0.00001080       0.00000000       0.43236445
C        1.22975600       7.00000000       0.71000000       0.00136731       0.00000000      -0.43249609
C        1.22975600       7.00000000       2.13000000       0.00136577       0.00000000       0.43249764
C        0.00000000       7.00000000       2.84000000      -0.00001080       0.00000000      -0.43233206
C        0.00000000       7.00000000       4.26000000      -0.00001080       0.00000000       0.43233669
C        1.22975600       7.00000000       4.97000000       0.00136577       0.00000000      -0.43249764
C        1.22975600       7.00000000       6.39000000       0.00136577       0.00000000       0.43249764
C        0.00000000       7.00000000       7.10000000      -0.00001080       0.00000000      -0.43233669
C        0.00000000       7.00000000       8.52000000      -0.00001080       0.00000000       0.43233206
C        1.22975600       7.00000000       9.23000000       0.00136577       0.00000000      -0.43249712
C        1.22975600       7.00000000      10.65000000       0.00136731       0.00000000       0.43249609
C        0.00000000       7.00000000      11.36000000      -0.00001080       0.00000000      -0.43236445
C        0.00000000       7.00000000      12.78000000      -0.00001080       0.00000000       0.43236034
C        1.22975600       7.00000000      13.49000000       0.00136731       0.00000000      -0.43249609
C        1.22975600       7.00000000      14.91000000       0.00136731       0.00000000       0.43249609
C        0.00000000       7.00000000      15.62000000      -0.00001080       0.00000000      -0.43236085
76
Lattice="9.838 0.0 0.0 0.0 14.0 0.0 0.0 0.0 17.04" Properties=species:S:1:pos:R:3:REF_forces:R:3 system_type=FORCED_Chair4x4_sol REF_energy=-11796.447666266286 al_round=1 source=cp2k_sp REF_stress="0.0030245044726260814 -0.0006405068902346756 0.00994701989156584 -0.0001425376102901024 2.794016217115797e-05 -8.015230273855062e-05" _cp2k_dir=cp2k_sp_round1 orig_idx=509 pbc="T T T"
C        7.37900000       7.00000000       0.00000000      -0.02999552       0.05670877       0.40153230
C        8.60800000       7.00000000       0.71000000       0.02140495      -0.07695775      -0.43423622
C        8.60800000       7.00000000       2.13000000       0.00726799      -0.00205894       0.45323153
C        7.37813000       7.00808200       2.84022300       0.01904468      -0.00725154      -0.42304729
C        7.37855200       7.03934300       4.26056900      -0.01338105       0.01638513       0.38916477
C        8.60857000       7.06048800       4.96921300      -0.03039764      -0.01059860      -0.35216711
C        8.60816300       7.10991200       6.38993100       0.02125840       0.01605448       0.37072019
C        7.37874000       7.13453100       7.09910700      -0.01364176      -0.03023720      -0.44090412
C        7.37839300       7.16534800       8.51865600       0.00089269       0.00721709       0.47842371
C        8.60758900       7.16655100       9.23047900       0.04963155       0.02266530      -0.49822635
C        8.60823300       7.16317300      10.65025700       0.00401915       0.00170773       0.46857639
C        7.37830200       7.15488200      11.36094100       0.03100185       0.01936812      -0.42641903
C        7.37822600       7.11833700      12.78088300       0.02237631      -0.02039245       0.41939838
C        8.60839200       7.09340900      13.49027200      -0.00734564       0.02373180      -0.40847325
C        8.60841500       7.04741600      14.91011400      -0.00199929      -0.02259588       0.39552980
C        7.37895000       7.02671900      15.61918200      -0.01778895       0.01764497      -0.37188079
C        4.91900000       7.00000000       0.00000000       0.01247911       0.06479180       0.43740176
C        6.14900000       7.00000000       0.71000000      -0.00281382      -0.07938333      -0.43835461
C        6.14900000       7.00000000       2.13000000      -0.03156492       0.01376569       0.44464970
C        4.91887300       7.00863000       2.84052700       0.01439047       0.00427780      -0.47342086
C        4.91927500       7.04259300       4.25983800      -0.03473098       0.00856332       0.43125528
C        6.14830300       7.06385400       4.96934400       0.03233522      -0.01686644      -0.37578938
C        6.14891800       7.11219600       6.38956900      -0.02178856       0.02479675       0.39614378
C        4.91864600       7.13729500       7.09909000       0.02791241      -0.01544050      -0.43457406
C        4.91865700       7.17282500       8.51820700      -0.00434568      -0.00175349       0.52618196
C        6.14923300       7.17910800       9.23005400      -0.05193680      -0.02848525      -0.48135323
C        6.14981400       7.17328100      10.65051600      -0.07612420      -0.02257429       0.44436945
C        4.91903700       7.16448300      11.36180400      -0.01927145      -0.00565848      -0.49985746
C        4.91883400       7.12306200      12.78135000       0.01087217      -0.01597529       0.40697635
C        6.14894200       7.09635200      13.49032400      -0.01556649       0.01837619      -0.38054387
C        6.14872700       7.04891800      14.91064600       0.02349783      -0.01883179       0.38105140
C        4.91946100       7.02865800      15.62001300      -0.02393286       0.00706745      -0.41141973
C        2.46000000       7.00000000       0.00000000      -0.02894034       0.06424570       0.42331057
C        3.68900000       7.00000000       0.71000000       0.02907095      -0.07957359      -0.43092669
C        3.68900000       7.00000000       2.13000000       0.01760743       0.02603756       0.45934973
C        2.45966900       7.00954500       2.84072900      -0.00744592      -0.00815040      -0.47041575
C        2.45943400       7.04253400       4.26007000       0.00861268       0.00942824       0.43191811
C        3.68908800       7.06577000       4.96922900       0.01890275      -0.00692707      -0.37725028
C        3.68929700       7.11476600       6.38959100      -0.01891047       0.00665710       0.38061277
C        2.45959200       7.13660500       7.09939300      -0.00266726      -0.02791395      -0.43252952
C        2.45989500       7.16695700       8.51918800      -0.01756166       0.01622932       0.45484618
C        3.68844000       7.18047400       9.22990900       0.05719985      -0.01531658      -0.45992514
C        3.68811900       7.17790100      10.65011100       0.07321577      -0.03190534       0.44919541
C        2.45949900       7.16180400      11.36080100      -0.00824861      -0.00102433      -0.40400467
C        2.45976600       7.12163600      12.78120800      -0.02070767      -0.00843630       0.39359993
C        3.68906600       7.09831900      13.49056100       0.00549599       0.01388139      -0.38325072
C        3.68944600       7.04975100      14.91070800      -0.00262047      -0.01576601       0.39532257
C        2.45952200       7.02798200      15.61997500       0.01560968       0.01034561      -0.41772922
C        0.00000000       7.00000000       0.00000000      -0.00154369       0.05522113       0.42351832
C        1.23000000       7.00000000       0.71000000      -0.00290226      -0.07527882      -0.44149084
C        1.23000000       7.00000000       2.13000000       0.00137400       0.01066031       0.45478910
C        0.00020600       7.00597600       2.84034300      -0.01968745       0.00820799      -0.44844465
C        9.83772700       7.03670400       4.26041600       0.04065789       0.03474126       0.40757902
C        1.23007000       7.06293400       4.96954100      -0.02300366      -0.01197157      -0.38794607
C        1.22967400       7.11211100       6.38970300       0.03110469       0.01278867       0.38929847
C        0.00033500       7.13318100       7.09889300      -0.02778797      -0.03878921      -0.41805266
C        9.83786900       7.15909400       8.51848000       0.02907249       0.03474178       0.52199826
C        1.23059500       7.16931300       9.23085600      -0.05597960       0.01774061      -0.50455229
C        1.22998700       7.16836800      10.65061100      -0.02531508      -0.01635633       0.45039817
C        9.83785300       7.15401100      11.36133200       0.01996719       0.00765006      -0.46354371
C        0.00013300       7.11834100      12.78104700      -0.00791437      -0.02482760       0.41521159
C        1.22973700       7.09502400      13.49054800       0.01478076       0.02418174      -0.40596488
C        1.23002200       7.04816300      14.91042300      -0.01978464      -0.01990754       0.40401238
C        9.83777300       7.02640300      15.61963000       0.02456946       0.01801469      -0.40348428
O        6.61135000      13.64174700       6.81478700      -0.10320203      -0.19112245       0.13096069
H        6.54118700      13.78855700       7.77583500       0.00340003      -0.04669741      -0.20957886
H        5.83349900      13.09445400       6.59735000       0.20305752       0.18166594       0.08638856
O        7.87500000       2.53400000       2.44300000      -0.07588817       0.35952150       0.14866068
H        8.62800000       2.19500000       1.93700000       0.09627856       0.01745985       0.02167749
H        8.26219800       3.16477400       3.07983800      -0.06247061      -0.22829907      -0.21684069
O        9.82118500      11.41413700       9.22561000       0.12921286      -0.20604719       0.05289068
H        9.14480300      10.74383400       9.42772700       0.12383102       0.06496561      -0.05269631
H        0.75346600      10.89362100       8.93303400      -0.18715833       0.08212361       0.05966914
O        4.47811200       3.37841800       9.66635600       0.10661594       0.06311596       0.09825420
H        5.31113600       3.75181700       9.32613100      -0.15731759      -0.03890439       0.07587840
H        4.42009800       3.71681800      10.57919100       0.03501791      -0.05016891      -0.23225548
80
Lattice="24.496 0.0 0.0 0.0 14.0 0.0 0.0 0.0 17.04" Properties=species:S:1:pos:R:3:REF_forces:R:3 system_type=FORCED_Chair4x4sat REF_energy=-10173.320762517687 al_round=1 source=cp2k_sp REF_stress="0.0009432240394725418 -2.015621015685091e-06 0.005334228709623037 8.423946269397411e-15 -4.847104672336646e-05 -3.268386395017168e-15" _cp2k_dir=cp2k_sp_round1 orig_idx=510 pbc="T T T"
C       15.32250400       7.00000000       0.00000000       0.58181035       0.00000000       0.04213781
C       16.55226000       7.00000000       0.71000000      -0.14966804       0.00000000       1.85659990
C       16.55226000       7.00000000       2.13000000       0.39558585       0.00000000      -2.28424484
C       15.33972500       7.00000000       2.82830400      -0.53471545       0.00000000       0.52885282
C       15.33926100       7.00000000       4.27024100      -0.43315430       0.00000000      -0.53558603
C       16.53769100       7.00000000       4.99563300       0.52479716       0.00000000       0.49480318
C       16.53899500       7.00000000       6.36907000       0.54762496       0.00000000      -0.49628825
C       15.34071300       7.00000000       7.09221800      -0.43149696       0.00000000       0.52639485
C       15.34149000       7.00000000       8.53016500      -0.41533244       0.00000000      -0.52181057
C       16.54129300       7.00000000       9.25280600       0.53555414       0.00000000       0.47877133
C       16.54126300       7.00000000      10.62625000       0.53555569       0.00000000      -0.48054179
C       15.34120200       7.00000000      11.34852000      -0.41926417       0.00000000       0.51822491
C       15.33955900       7.00000000      12.78576900      -0.43031580       0.00000000      -0.52041960
C       16.53809200       7.00000000      13.50932400       0.54039399       0.00000000       0.49791988
C       16.53482000       7.00000000      14.88214500       0.50858430       0.00000000      -0.47160052
C       15.33276700       7.00000000      15.60329300      -0.41796268       0.00000000       0.51256539
C       12.86299200       7.00000000       0.00000000      -0.03545397       0.00000000      -0.30826141
C       14.09274800       7.00000000       0.71000000       0.21965296       0.00000000      -0.11619845
C       14.09274800       7.00000000       2.13000000       0.45687170       0.00000000       0.19408282
C       12.85956700       7.00000000       2.84363600       0.23799161       0.00000000       0.11934702
C       12.86010100       7.00000000       4.26305000       0.30580086       0.00000000      -0.12664124
C       14.10411100       7.00000000       4.97270000      -0.09255252       0.00000000      -0.27528289
C       14.10470300       7.00000000       6.39073400      -0.10727672       0.00000000       0.28187109
C       12.86127500       7.00000000       7.10221400       0.28518216       0.00000000       0.07831941
C       12.86133100       7.00000000       8.52056800       0.29273966       0.00000000      -0.09809325
C       14.10533100       7.00000000       9.23095700      -0.11071685       0.00000000      -0.27520216
C       14.10496500       7.00000000      10.64810000      -0.11133495       0.00000000       0.27170855
C       12.86056400       7.00000000      11.35846200       0.29546965       0.00000000       0.09181976
C       12.85941300       7.00000000      12.77633400       0.29294946       0.00000000      -0.08369353
C       14.10244100       7.00000000      13.48562700      -0.10954289       0.00000000      -0.27777841
C       14.09950200       7.00000000      14.90244700      -0.08742368       0.00000000       0.29635977
C       12.85948800       7.00000000      15.61883400       0.30146804       0.00000000       0.11562972
C       10.40348000       7.00000000       0.00000000      -0.37249528       0.00000000       0.18098614
C       11.63323600       7.00000000       0.71000000       0.01375026       0.00000000       0.22583235
C       11.63323600       7.00000000       2.13000000      -0.20894740       0.00000000      -0.08732393
C       10.39742800       7.00000000       2.84293300       0.08115379       0.00000000      -0.30560237
C       10.38883300       7.00000000       4.25948900       0.13537013       0.00000000       0.26383737
C       11.63142800       7.00000000       4.97321700      -0.31824140       0.00000000       0.07003171
C       11.63130500       7.00000000       6.39111000      -0.30427928       0.00000000      -0.09341898
C       10.38595900       7.00000000       7.09764600       0.10592483       0.00000000      -0.27405494
C       10.38768400       7.00000000       8.51700400       0.08846292       0.00000000       0.27629128
C       11.63085200       7.00000000       9.23024700      -0.30582092       0.00000000       0.07992480
C       11.63046700       7.00000000      10.64957700      -0.30751270       0.00000000      -0.08381540
C       10.38771800       7.00000000      11.36429200       0.08923991       0.00000000      -0.28211689
C       10.38574600       7.00000000      12.78392800       0.10319843       0.00000000       0.26950048
C       11.63078700       7.00000000      13.49006400      -0.30564351       0.00000000       0.08712492
C       11.63069700       7.00000000      14.90844100      -0.32743978       0.00000000      -0.08418409
C       10.38857500       7.00000000      15.62199900       0.15291226       0.00000000      -0.24157110
C        7.94396800       7.00000000       0.00000000       0.25880366       0.00000000      -0.30674754
C        9.17372400       7.00000000       0.71000000      -0.19243012       0.00000000      -0.26477531
C        9.17372400       7.00000000       2.13000000      -0.00993577       0.00000000       0.01970288
C        7.95574500       7.00000000       2.83496300      -0.44355698       0.00000000       0.50987242
C        7.95104400       7.00000000       4.21104300      -0.57560885       0.00000000      -0.45919906
C        9.14777500       7.00000000       4.94907500       0.39949341       0.00000000       0.54542410
C        9.14960300       7.00000000       6.39143700       0.39347857       0.00000000      -0.54596968
C        7.95391200       7.00000000       7.11986400      -0.56714838       0.00000000       0.49417275
C        7.95553300       7.00000000       8.49507900      -0.56256410       0.00000000      -0.50117592
C        9.15317700       7.00000000       9.22068800       0.39921727       0.00000000       0.53350395
C        9.15323700       7.00000000      10.66126100       0.40092860       0.00000000      -0.53892435
C        7.95574900       7.00000000      11.38714200      -0.56454745       0.00000000       0.49255810
C        7.95364500       7.00000000      12.76216800      -0.56887102       0.00000000      -0.50263117
C        9.14946100       7.00000000      13.49076800       0.39698093       0.00000000       0.53429070
C        9.14717800       7.00000000      14.93274900       0.36402761       0.00000000      -0.53707675
C        7.94537000       7.00000000      15.66606500      -0.54266684       0.00000000       0.43994561
H        7.00000000       7.00000000       0.54500000       0.15656014       0.00000000      -0.28053926
H        7.00000000       7.00000000       2.29500000       0.39191328       0.00000000       0.36920170
H        6.98430400       7.00000000       4.70714400       0.08745659       0.00000000       0.09522133
H        6.98411200       7.00000000       6.62934900       0.11749994       0.00000000      -0.12156845
H        6.98696600       7.00000000       8.98808700       0.12255987       0.00000000       0.10839515
H        6.98755000       7.00000000      10.89351800       0.11936913       0.00000000      -0.10634032
H        6.98312300       7.00000000      13.25136700       0.12368344       0.00000000       0.12239635
H        6.97977000       7.00000000      15.16798300       0.09466803       0.00000000      -0.11329670
H       17.49622800       7.00000000       0.16500000      -0.13787439       0.00000000       0.25692264
H       17.49622800       7.00000000       2.67500000      -0.12201685       0.00000000      -0.26776036
H       17.50895200       7.00000000       4.50896400      -0.12506412       0.00000000      -0.11237419
H       17.50919400       7.00000000       6.85924900      -0.14175161       0.00000000       0.11773288
H       17.51041900       7.00000000       8.76065700      -0.13783942       0.00000000      -0.11669621
H       17.51030300       7.00000000      11.11872500      -0.14057456       0.00000000       0.11456939
H       17.50918600       7.00000000      13.02063600      -0.14932917       0.00000000      -0.12145584
H       17.50445800       7.00000000      15.37202200      -0.13156747       0.00000000       0.10685814
248
Lattice="11.099 0.0 0.0 0.0 9.612 0.0 0.0 0.0 33.0" Properties=species:S:1:pos:R:3:REF_forces:R:3 system_type=FORCED_Close0.375PtOH2_neb_img05 REF_energy=-250417.69489376817 al_round=1 source=cp2k_sp REF_stress="-0.021923667652114818 -0.009105401988467647 -0.0013890253752009219 0.0014139694680006176 0.0008980639607680111 -0.00046542739942367683" _cp2k_dir=cp2k_sp_round1 orig_idx=528 pbc="T T T"
Pt      11.06747900       9.25827800       0.00231000       0.19772093       0.30361542       0.14941556
Pt       2.79683700       9.26279600       0.00198000      -0.29287953       0.06390066       0.17867523
Pt       5.51664700       9.26068100       0.00297000       0.40075017      -0.01970134       0.16491314
Pt       8.34711400       9.26097000       0.00231000      -0.19591653       0.07980139      -0.03265456
Pt       1.35818500       2.05168100       0.00132000       0.03948546      -0.02289105       0.07607792
Pt       4.19653200       2.05120100       0.00231000      -0.33775145      -0.20860596      -0.11168359
Pt       6.90923800       2.05293100       0.00000000       0.53808051       0.06960491       0.10497866
Pt       9.74403400       2.04850900       0.00132000      -0.21257317       0.08793122      -0.01482190
Pt      11.06747900       4.45227800       0.00231000       0.24706144      -0.04192853       0.00199415
Pt       2.79683700       4.45689200       0.00198000      -0.32483268       0.26054430       0.50535962
Pt       5.51664700       4.45468100       0.00297000       0.47098551       0.34176134       0.17815844
Pt       8.34711400       4.45497000       0.00231000      -0.25657915       0.13055240       0.03776437
Pt       1.35818500       6.85768100       0.00132000       0.32960465      -0.12340833      -0.23234084
Pt       4.19653200       6.85720100       0.00231000      -0.11821573       0.13572186      -0.01368495
Pt       6.90923800       6.85883500       0.00000000       0.27739737       0.06276475      -0.04648658
Pt       9.74403400       6.85450900       0.00132000      -0.55347268       0.09447519      -0.01015689
Pt       1.38193600       0.68821900       2.37237000      -0.07138051      -0.12030501       0.11446655
Pt       4.16712000       0.69168000       2.37963000       0.11056156       0.20545224       0.17997466
Pt       6.93188000       0.68687400       2.37171000      -0.02425990       0.08448594       0.31100375
Pt       9.71717500       0.69196800       2.37963000      -0.11314809      -0.15761686       0.31649562
Pt      11.09367200       3.09573700       2.37963000      -0.12228939      -0.38041068       0.20467011
Pt       2.77919000       3.09045000       2.37105000       0.06097577      -0.32605036       0.05756958
Pt       5.54550400       3.09429500       2.37963000       0.14652101      -0.22625710       0.53958512
Pt       8.32902300       3.08910500       2.37039000      -0.05062091      -0.18196316       0.60906405
Pt       1.38193600       5.49421900       2.37237000       0.03432217      -0.12929205      -0.43034408
Pt       4.16712000       5.49768000       2.37963000      -0.01290385      -0.29389408       0.09912169
Pt       6.93188000       5.49287400       2.37171000       0.03024595      -0.38616893      -0.06941465
Pt       9.71717500       5.49806400       2.37963000       0.00230319      -0.44732725      -0.24321506
Pt      11.09367200       7.90173700       2.37963000       0.01835356       0.04164005       0.00643033
Pt       2.77919000       7.89645000       2.37105000       0.00358772      -0.07711202      -0.01135039
Pt       5.54550400       7.90029500       2.37963000      -0.02606739      -0.33627204       0.03543083
Pt       8.32902300       7.89510500       2.37039000      -0.00647198      -0.07911336      -0.26660645
Pt      10.96125100       1.52154600       4.79348500       0.23481270       0.15253893      -0.26643059
Pt       2.69495500       1.54538900       4.71283600       0.07556473       0.14545966      -0.11236647
Pt       5.47295200       1.55344300       4.85725500       0.02500244      -0.00826044      -0.57076746
Pt       8.24987100       1.53051900       4.75576800      -0.28847163      -0.01465683      -0.35615592
Pt       1.31638500       3.89641200       4.66639800       0.05668460       0.45446154       0.29622453
Pt       4.09074200       3.94013300       4.75909200       0.18057065      -0.05882787       0.05841907
Pt       6.88072200       3.90451400       4.78573900      -0.04073759       0.08048942       0.07063078
Pt       9.69106400       3.91537400       4.77313800      -0.36179795       0.03490170      -0.52913667
Pt      11.09122700       6.33413000       4.62920500       0.13667008       0.25533165       0.08159499
Pt       2.71456800       6.33790800       4.66616400      -0.25459940      -0.00543943      -0.05515685
Pt       5.47772200       6.28190900       4.69065200       0.02691020       0.15541754       0.00755082
Pt       8.28411500       6.28941200       4.62593500      -0.07160780      -0.00167533       0.05866692
Pt       1.31776100       8.78351400       4.71804200       0.08778827       0.13228532      -0.11424132
Pt       4.08965600       8.76679000       4.70020300      -0.07049143      -0.01615630      -0.39115635
Pt       6.86078600       8.72632900       4.64630200      -0.24788779      -0.07672070      -0.00374044
Pt       9.65303500       8.67885000       4.72059100       0.07048783       0.42453390      -0.29342974
Pt      11.06005500      -0.01358600       7.15864800       0.44377655      -0.22913416      -0.30518328
Pt       2.55690800       0.00407500       7.09236400       0.05355145      -0.25963053      -0.44253780
Pt       5.51368200      -0.28853200       7.03238200       0.25260319      -0.26164319      -0.46138295
Pt       8.18585500      -0.27295600       6.92399200      -0.02655795       0.25170331      -0.09790967
Pt       1.15777800       2.40529600       7.04226400      -0.03364546       0.11166765      -0.22911513
Pt       3.94884500       2.54688300       7.11015500       0.05987894       0.33436171      -0.15718286
Pt       6.65838800       2.14750700       7.24453600       0.24221439      -0.30629091      -0.21579579
Pt       9.52298700       2.08169300       7.28512000      -0.25834344       0.25324391      -0.94723818
Pt       5.44945900       7.23567800       8.91880700       0.40584609      -0.07430592      -1.09762048
Pt       2.44781300       4.77829100       6.99319000      -0.11250994       0.43691119      -0.35814236
Pt       5.16679600       4.93691500       7.31981700      -0.67648455       0.61459912       0.33880560
Pt       8.26602100       4.50612800       7.24830400       0.31424488      -0.23287409       0.19486958
Pt       1.22020900       7.20905400       6.96860600      -0.30172566      -0.41940866      -0.22738375
Pt       3.81315100       7.18751000       6.96802600       0.04987581      -0.27632213      -0.55264273
Pt       6.97978000       6.93887800       6.88092000       0.19001328       0.32771489      -0.52607706
Pt       9.75037100       6.73619000       7.09405600       0.70958185      -0.37041423       0.00593102
O       -0.49251400       5.99012000      14.46950900      -0.00272743      -0.20328994       0.17792858
O        9.62755300       8.46517500       8.03352600      -0.37317508       0.11793703       0.57125854
O        6.68854300       3.99104500       8.22794200      -0.85899432      -0.28417274      -0.10796114
O        7.81805200       1.41092200       8.77329100       0.15038486      -0.08843927       0.63863842
O      -12.04745400       4.81711000       6.65822100      -0.18177032       0.18538324       0.62903483
O        4.11756500       0.79316500       8.07974700       0.04707845      -0.07238890       1.02612632
O        9.50280600       0.83066400      13.10642400       0.00887853       0.15264126       0.59761492
H        8.87898100       1.00564300      12.36970300      -0.09928110       0.04454488      -0.14123636
H        9.87343300      -0.06544400      13.00831100      -0.04170484       0.10412197      -0.10008843
O        4.24402300       6.59123000      10.28058400      -0.75517111       0.13628493       1.24080162
H       -1.19949600       5.46310600      14.05614400       0.06664608       0.19033827      -0.04090008
H        3.32995200       6.84872600      10.02690400       0.24002895      -0.29615203      -0.12907710
O        6.45296500       9.08439900       9.97823300      -0.18408123       0.37129509       0.98356376
H        5.62314000       9.60641900       9.93837000      -0.06927118      -0.13209043      -0.04366402
H        7.11253700       9.70857900       9.51391200       0.00474729      -0.06278737      -0.70840428
O        3.59958700       6.61816900      15.64135000       0.17287790      -0.24572343       0.00444904
H        4.02143700       5.79177900      15.95801800      -0.39041793       0.60947182      -0.09180433
H        3.79071400       6.60625500      14.68708300      -0.19793228       0.23614247      -0.09810559
O        2.35896300       3.88149200      25.02023400       0.09517505      -0.05907676      -0.32034354
H        2.42384600       3.12109600      24.41740500       0.00604672       0.15341928       0.22457868
H        1.42966700       4.19631600      24.93412600       0.03394011      -0.00718521       0.08387762
O        9.14509900       3.36415100      10.00555900       0.20267853      -0.00905491       0.54856187
H        9.82207500       3.60936700       9.34980500       0.25473206       0.06960285       0.09865581
H       -2.38008400       2.57503300       9.56888400      -0.15787603       0.17410689      -0.06121231
O        7.23460500       1.27331600      11.73607600       0.23362536       0.17050478       0.25158966
H        7.58868400       1.61540800      10.87853200      -0.09911038       0.02143220      -0.27211632
H        7.00731000       0.33046200      11.52527600      -0.06593492       0.03753040      -0.38370375
S        3.60787300       1.94641100      11.29416100       0.06731354      -0.33703771      -0.33021555
O        3.66581100       0.51118200      11.44702600       0.02692305      -0.50923324       0.30018094
O        2.82022500       2.56498400      10.27112600      -0.44330553       0.34895220       0.03286899
O        5.04801700       2.54527600      11.23201800       0.31801360       0.48855489       0.04413453
H        5.80154800       1.94760100      11.60614200      -0.09060003       0.17138872      -0.15178200
C        2.97527800       2.70393600      12.92324700      -0.18771780       0.02940982      -0.06778560
C        3.55742200       2.08911600      14.27149900      -0.13024387      -0.25511002      -1.04085926
O        3.63079100       3.08969600      15.25289600       0.12788411       0.13132836       0.66906897
F        1.61954500       2.56736000      12.92151700       0.14000995      -0.14123842      -0.26982547
F        3.27797800       4.02882400      12.85866300      -0.08621629       0.23123475       0.03587203
F        2.76898400       1.07524100      14.72918300      -0.09192877      -0.14684960      -0.02900719
F        4.79795100       1.58660400      13.99837400       0.06455012      -0.30641638       0.29039892
C        4.31353100       2.77499900      16.43699500       0.09955929       0.45933327       0.42000002
C        5.56534300       3.69263400      16.57193800       0.54885806      -0.12377394      -0.64937535
C        3.39472100       2.88692000      17.72004100      -0.48855129      -0.43717190      -0.35408618
O        4.11806800       2.44655900      18.79932800       0.95979648      -0.32793909      -1.20395257
F        6.23539200       3.77848100      15.40398100      -0.51057536      -0.16461798       0.19125307
F        6.38901500       3.19135900      17.52106400      -0.19214781       0.09051569       0.28378245
F        5.25964400       4.97121500      16.96912900      -0.07438511       0.06966507      -0.06317561
F        4.77042900       1.48282200      16.47334300       0.13347420      -0.38811885       0.24231826
F        2.31358800       2.09643100      17.45957400      -0.26829464      -0.26518926      -0.03420030
F        2.91785600       4.16075900      17.89519100      -0.15925980       0.24369740       0.12277996
C        3.83301200       2.36997700      20.18018600      -1.30144007       0.83623594       1.23692286
C        2.42230300       1.75974500      20.48870400       0.87540721      -0.30713424       0.66815109
F        4.77444600       1.47536800      20.64493100       0.57364915      -0.49447820       0.00885539
F        2.43670500       0.49399000      19.98438800       0.08590313      -0.13221076      -0.02228118
F        1.46219100       2.48166600      19.82017800      -0.46688203       0.60071773      -0.63645555
C        1.90799500       1.65143200      21.96267700      -0.06600434       0.14895276      -0.06433106
F        2.82989200       1.10046400      22.79039300      -0.15220829      -0.08981224       0.10778322
F        1.55534600       2.88115300      22.45251100       0.10403250      -0.16297607      -0.48209216
F        0.78552000       0.87934000      22.00653600       0.10605339      -0.33224260      -0.10955317
C        4.17915100       3.72209800      20.88502300       0.15071654      -0.55839325      -0.24929830
F        4.29187100       3.57659100      22.23301900      -0.06625631      -0.32704743      -0.07131726
F        3.21358800       4.66709400      20.65075700      -0.30684319       0.19124535       0.15519848
F        5.35387600       4.19464500      20.41815200      -0.11966583       0.15484161      -0.17691968
O        0.75688300       4.12891300      15.95169000      -0.01785014       0.01019442       0.17591695
H        1.12984700       3.99896800      16.83793200      -0.14359972       0.07190605      -0.29060976
H        0.45318500       3.22358500      15.63534000       0.06099377       0.09149117      -0.08125458
O        1.21445300       7.03086400      30.72005800       0.02805382       0.02398634      -0.51239313
H        0.76002100       7.86630000      30.50037700       0.01439098       0.01931619       0.26126318
H        2.08795100       7.03728100      30.20730500      -0.14086510       0.04327218       0.32670599
O        9.70893800       4.87836900      26.88897200      -0.00316657       0.04623769      -0.30768342
H        9.94434600       5.04575600      27.82266200      -0.06131104       0.00390653       0.14863446
H       10.45325400       5.21982500      26.32585800      -0.19483821      -0.07177904       0.33806255
O        8.79321900       4.88732800      29.72719000       0.11022114       0.01999650      -0.52857925
H        8.51691000       3.98915200      29.41172400       0.00915673       0.12597687       0.21782439
H        8.83872100       4.79053800      30.71059800       0.09355011       0.06961262       0.20295570
O       10.78802700       1.87236000      15.22338500       0.07020706      -0.07267635       0.37291900
H       10.07352400       2.04446600      15.91499900       0.22955993      -0.11945809      -0.28763653
H       10.33438900       1.79601100      14.34562000       0.01286426      -0.06642086      -0.13793352
O        6.61089800       7.56429900      22.01303500      -0.10483314      -0.03524263      -0.22618099
H        7.02344200       8.33081400      21.52214400       0.03111858      -0.05355968       0.03333127
H        7.14772000       6.75078800      21.76822900       0.01832682       0.02732569       0.03739413
O       10.64444700      -0.79006600      15.10493200       0.10568983       0.05408882       0.22760332
H       -0.12042000       0.14154400      15.22388400       0.05799021      -0.15728005      -0.03061978
H       11.37961800       8.19946000      14.97799000      -0.13481375       0.06311647      -0.11633317
O        4.25113100       6.65728700      26.78168700      -0.06471724       0.03152995      -0.55464613
H        3.81115500       6.69347100      25.87767500       0.27226288       0.05641361       0.34642687
H        5.14599200       7.02330100      26.66159600      -0.02981863      -0.05173111       0.01625143
O       -0.09294700       4.73995100      19.38919000       0.26441381       0.04395147       0.04638425
H        0.58037500       4.11801100      19.71319700      -0.13416686       0.25870699      -0.02800754
H       10.94528600       5.49763200      20.03718200       0.13771961      -0.01506872      -0.02858193
O        4.07779300       2.33789200      30.87696700      -0.06451515      -0.00998102      -0.75297590
H        4.30584000       3.29957600      30.60726000      -0.01083412      -0.06593543       0.03210948
H        4.74818300       1.81868200      30.35125800      -0.09640815       0.08355109       0.31587290
O        3.01202300       8.71269300      17.42306000       0.26312158      -0.10165731       0.20566513
H        3.72451400       8.40979500      18.15507800      -0.18624816       0.00419038      -0.09079954
H        2.00059800       8.79255900      17.83207400      -0.23554084      -0.22055542       0.10655629
O        7.80274600       7.29080400      28.93807000       0.01510266       0.03528068      -0.36069340
H        8.52913600       7.97343900      28.99996200      -0.03972920      -0.06253386       0.16071196
H        8.13565200       6.42301000      29.30739100       0.06699061      -0.15669949       0.20629351
O        4.78470000       7.79963900      18.90971900       0.09405045      -0.06557291       0.15929477
H        5.58200100       8.38256900      18.77569200       0.08137439       0.05281201       0.03274454
H        4.61190800       7.69762800      19.86891800      -0.01084543       0.20006321       0.04424612
O        7.88209600       9.67865400      20.76388600      -0.05186892       0.02190220      -0.09668891
H        7.42005000       0.14948200      19.88823200      -0.01336511       0.07644404       0.05618118
H        7.84923200       0.95910600      21.19584700       0.00348385       0.00360469      -0.07064209
O        5.77724400       1.27411800      29.01895900       0.05365687       0.31541987      -0.21449224
H        5.74168200       0.28511100      29.25043700      -0.00175761      -0.15467861       0.18834206
H        5.20779500       1.42452300      28.24535000       0.01763468      -0.02044593       0.12276556
O        7.76207800       1.38742900      24.40415400      -0.04751193      -0.00138017      -0.02966590
H        6.83388300       1.58005200      24.62399000       0.14081522      -0.00963341       0.10722529
H        7.82346700       0.38951900      24.38996700      -0.04784926       0.06083282       0.06148177
O        8.31068100       2.57782000      22.01014900      -0.04314569      -0.16852503      -0.18524440
H        8.15135200       2.23001700      22.93880200       0.04005316      -0.04465647       0.07161551
H        9.27642300       2.54921000      21.88382900      -0.08466643      -0.01840653       0.05390472
O        3.03496300       6.44723300      24.44746200      -0.07549428       0.01860348      -0.39814153
H        3.02547200       5.45230000      24.42528200       0.03194853       0.03689482       0.02003815
H        3.34360000       6.77508000      23.56191500      -0.03622736      -0.06424159       0.14731805
O        8.32744400       2.30241000      28.67474300       0.12510012      -0.14543292      -0.22090200
H        7.38013100       2.00141200      28.74013400      -0.07868810      -0.03401981       0.07364874
H        8.47313200       2.56225700      27.74616400      -0.09533086      -0.03140706       0.09241677
O        0.73703300       8.55925200      18.30359100       0.13331119      -0.06267784       0.23980270
H       11.41917500       7.81375600      17.78502500      -0.18600699      -0.00271200      -0.00954702
H       11.11990500       9.26442000      18.49034900       0.03313741       0.06333450       0.03331636
O        7.56363200       6.49613500      26.34668500      -0.07769823      -0.04881960      -0.49383542
H        8.35652200       5.88469500      26.40074900      -0.04580781       0.04900832       0.13292656
H        7.60082500       6.93265700      27.24424100       0.08221823       0.01328489       0.33631832
O       10.83639400       7.68246700      10.25335400       0.12617587      -0.08629034       0.72705506
H       10.83598800       6.92030700      10.85824300       0.04763843       0.01290180      -0.26561914
H       10.80167500       7.29932000       9.35304400      -0.00354452      -0.01779204       0.17159030
O        8.46840600       4.80376700      18.01655200      -0.16365073       0.01735752       0.20655113
H        9.12451500       5.49994100      17.77395000      -0.08269491      -0.13757408      -0.00144959
H        7.58329800       5.19221500      17.93848000       0.11243846       0.08994285      -0.04986912
O        8.21353800       5.48941300      21.53837300       0.04530027      -0.08355777       0.03666136
H        8.12976700       4.51180900      21.61513400      -0.01342065       0.04899649       0.01127069
H        8.85838200       5.66727800      20.82723200      -0.09319941      -0.07586143       0.04047277
O        0.34973200       5.85757500      24.99279500       0.19082163      -0.04199332      -0.18084318
H       -0.16294700       6.35122600      24.30599700       0.07571797      -0.03825390       0.15836043
H        1.24315500       6.27694800      24.93168700      -0.13443117       0.00608477       0.06078911
O        5.67004100       8.44964900      29.90025100       0.08831380       0.01248219      -0.53606631
H        6.48906400       7.92798300      29.60936100      -0.08862593       0.04670049       0.20158684
H        5.75397500       8.55728700      30.88927400      -0.03060127       0.05212758       0.35421680
O        8.50083500       8.23810300      16.57938600      -0.01433750       0.00686022       0.22932236
H        8.81789300       7.46155200      17.07706600       0.00023551       0.09252887      -0.10509796
H        9.31281600       8.47081900      16.02682900       0.06274521       0.08812200      -0.03528017
O        7.97000700       8.25626900      24.25186800       0.14485391       0.09355114      -0.23387887
H        7.36984200       7.94427900      23.51153000       0.07279462       0.02714417       0.20800997
H        7.82231200       7.63542000      25.02396900      -0.04754227      -0.17829162       0.29949189
O        4.89393400       4.60286800      29.96413500      -0.01496794       0.16632930      -0.32930692
H        5.30007600       4.44144500      29.06811400      -0.08775021       0.02002015       0.41392553
H        4.32063300       5.40158700      29.83210100       0.03552802      -0.06785759       0.21572174
O        6.80047000       9.50573500      18.27553000      -0.10008174       0.02529040       0.01488309
H        7.48957800       9.13287800      17.64740600       0.11673015      -0.04485444      -0.16044611
H        6.38965600       0.66021800      17.83354200       0.09927956      -0.11193864      -0.03457774
O        8.99036400       2.22915500      17.12423200      -0.10761302      -0.04627420       0.22469386
H        8.75239200       3.15883600      17.39188600       0.06132647      -0.08328524      -0.06499132
H        8.26021300       1.84775700      16.56515200       0.05991288      -0.02081205      -0.14227560
O        3.50720500       6.93264700      29.37806000      -0.10943953      -0.11990598      -0.37954011
H        3.57526100       6.86807800      28.38689900      -0.04779115       0.06607941       0.46683935
H        4.24791000       7.55730500      29.62819000       0.06346357       0.02306640       0.16272102
O        5.68071200       4.28579700      27.36215900       0.13796129      -0.07281159      -0.55259233
H        4.96208900       4.88177500      27.03702800       0.13062491      -0.10749629       0.15998022
H        6.47908600       4.78024800      27.07541000      -0.09710697      -0.02976669       0.12157462
O       10.09530700       0.65884500      19.08727900      -0.00200495      -0.03670970       0.07200324
H        9.63121900       1.22690300      18.41887400      -0.07550508       0.03512641      -0.03047940
H        9.41842000       0.35863700      19.74244200       0.08680456       0.00628635      -0.18099899
O       10.39324500       7.76898000      23.19964900       0.02354668       0.01614344      -0.17220633
H        9.48188300       7.99601400      23.57128600      -0.06765550      -0.00198181       0.10634546
H       10.95583800       8.54321500      23.37197300      -0.06572563      -0.03524263       0.07486693
O        9.60051900       9.33593300      28.95618200       0.17472807      -0.06804374      -0.09146083
H       10.28853000       9.32610700      28.26986600      -0.10293669       0.06348568       0.13905504
H        9.19945100       0.63008300      28.91301100       0.06353711      -0.00398367       0.13348654
O        7.49136200       0.91330000      15.22623300      -0.14935694       0.10805473       0.30081395
H        8.09117100       0.95885700      14.44288700       0.06763236      -0.08624663      -0.12438021
H        7.47331100       9.57251900      15.44122500       0.02453655       0.08661173      -0.11394822
O       10.57898900       7.05522500      20.59662300       0.05957092      -0.02693334       0.00157146
H       10.51653300       7.38936600      21.53268700       0.00869341      -0.05215689      -0.00969409
H       11.10047000       7.70044100      20.07491600      -0.04929988      -0.05901042       0.03256611
O       10.65478200       6.40747700      17.35616700      -0.09687352      -0.09656859       0.26504939
H       -0.36214900       6.04757800      16.44102700      -0.04718849       0.03679866      -0.08723497
H       11.00683800       5.71698200      17.99504300      -0.05884227      -0.01610076      -0.17754857
O        3.94108000       7.21576200      21.85030500      -0.06779640      -0.08967957      -0.10830310
H        3.77422500       6.33995800      21.45498100       0.07463605       0.21474987       0.10967504
H        4.93693000       7.30278200      21.94253100       0.01678725      -0.05694891       0.06068884
H       14.10602500       7.93118200      16.81736500       0.23775404      -0.10590015      -0.62560755
H        0.11399400       5.30656100      14.84841200       0.05191726      -0.07606558      -0.27153937
245
Lattice="11.099 0.0 0.0 0.0 9.612 0.0 0.0 0.0 33.0" Properties=species:S:1:pos:R:3:REF_forces:R:3 system_type=FORCED_Naf0.25PtOH_neb_img06 REF_energy=-249519.5641946094 al_round=1 source=cp2k_sp REF_stress="-0.019189387388856404 -0.006922575970796489 0.00508408966642688 -0.00041926522629714004 -0.0038219069309932277 -0.0017811941926747636" _cp2k_dir=cp2k_sp_round1 orig_idx=552 pbc="T T T"
Pt      11.06747900       9.25827800       0.00231000       0.09134616       0.25494855       0.18467670
Pt       2.79683700       9.26279600       0.00198000      -0.20972182       0.14343209       0.23246528
Pt       5.51664700       9.26068100       0.00297000       0.28291599       0.05083586       0.29417690
Pt       8.34711400       9.26097000       0.00231000      -0.25944541       0.00797299      -0.01472008
Pt       1.35818500       2.05168100       0.00132000      -0.00436573       0.00531087       0.10904358
Pt       4.19653200       2.05120100       0.00231000      -0.32720273      -0.05976581      -0.54521172
Pt       6.90923800       2.05293100       0.00000000       0.51816886      -0.03601653      -0.01312240
Pt       9.74403400       2.04850900       0.00132000      -0.35817527       0.09223628      -0.05498459
Pt      11.06747900       4.45227800       0.00231000       0.13713648      -0.02702898       0.06917708
Pt       2.79683700       4.45689200       0.00198000      -0.18281573       0.10425876       0.31410090
Pt       5.51664700       4.45468100       0.00297000       0.26309021       0.21186560       0.10382732
Pt       8.34711400       4.45497000       0.00231000      -0.19139602       0.03723935       0.13952607
Pt       1.35818500       6.85768100       0.00132000       0.27281206      -0.10176376      -0.41931970
Pt       4.19653200       6.85720100       0.00231000      -0.08598644      -0.02056266       0.12559788
Pt       6.90923800       6.85883500       0.00000000       0.20499253       0.10321900      -0.06724412
Pt       9.74403400       6.85450900       0.00132000      -0.55738127       0.07358241       0.08203002
Pt       1.38193600       0.68821900       2.37237000       0.11957739      -0.32137352      -0.12814122
Pt       4.16712000       0.69168000       2.37963000      -0.02711846       0.59053822      -0.68606602
Pt       6.93188000       0.68687400       2.37171000      -0.00353372       1.58327413      -2.91879315
Pt       9.71717500       0.69196800       2.37963000      -0.01243848      -0.36771406       0.00471283
Pt      11.09367200       3.09573700       2.37963000       0.49430799      -0.36762921      -0.58126528
Pt       2.77919000       3.09045000       2.37105000      -0.06883872       0.03772014      -0.23336568
Pt       5.54550400       3.09429500       2.37963000       0.21224098       0.12377240      -0.11609612
Pt       8.32902300       3.08910500       2.37039000      -0.29254065      -0.07343997      -0.23891567
Pt       1.38193600       5.49421900       2.37237000       0.11195355       0.08192307      -0.20852060
Pt       4.16712000       5.49768000       2.37963000       0.02317438      -0.12867035      -0.01666435
Pt       6.93188000       5.49287400       2.37171000      -0.26986455      -0.14822462      -0.43492682
Pt       9.71717500       5.49806400       2.37963000       1.17260825      -0.94720527      -2.26399586
Pt      11.09367200       7.90173700       2.37963000       0.18242904       0.01933727       0.26514503
Pt       2.77919000       7.89645000       2.37105000      -0.12962680      -0.00895361      -0.25007425
Pt       5.54550400       7.90029500       2.37963000       0.07391459      -0.55017087      -0.37121282
Pt       8.32902300       7.89510500       2.37039000      -0.04469092       0.15340334       0.24473510
Pt      11.24485900       1.59323800       4.68009800      -0.01290231      -0.01046079      -0.04102195
Pt       2.85996800       1.68140100       4.66692600      -0.01786711      -0.00187485      -0.02075806
Pt       5.57882500       1.77367900       4.73471200      -0.10867951       0.18846393      -0.06239708
Pt       8.49170000       1.65605300       4.67218800      -0.09820998      -0.01378420       0.03024800
Pt       1.51609900       4.04695000       4.71518100       0.03872699      -0.05261557       0.07638491
Pt       4.25034400       4.06917900       4.71944000      -0.07428843       0.33648647       0.14085430
Pt       7.00806800       4.05310000       4.74920000       0.03561338       0.08440212      -0.11290795
Pt       9.93388000       3.91651700       4.59707400      -0.13096892       0.27982912       0.18140163
Pt      11.23867500       6.47809200       4.70923500      -0.04124050      -0.01984120      -0.03767232
Pt       2.80918100       6.42024300       4.66338300       0.07664716       0.02821940       0.10826299
Pt       5.61810000       6.38319600       4.69321500       0.44039504       0.41807323       0.36649998
Pt       8.58175500       6.19308200       4.45336300      -0.16690215       0.26015092       0.43588069
Pt       1.50389300       8.84307300       4.74113400       0.06583927      -0.13780703       0.03032719
Pt       4.23659600       8.92593900       4.59114300      -0.11073999       0.02815564      -0.11411019
Pt       6.85256300       9.18858800       4.49477700      -0.18765506      -0.04401472       0.33048448
Pt       9.78761100       8.82551100       4.76791600      -0.14217584       0.31622617       0.01177411
Pt      11.45223000       0.29451700       7.08826900      -0.04677094      -0.22243952      -0.20964725
Pt       3.06634000       0.29168800       6.98946500      -0.14442196      -0.25040181       0.20722270
Pt       5.77630600       0.00203700       7.09011600       0.14774794      -0.15411656      -0.23285609
Pt       8.73342300       0.23486400       7.11538600      -0.11834017      -0.36914925      -0.21947864
Pt       1.72206300       2.59992500       7.05341200      -0.11393382       0.22011627       0.02727066
Pt       4.55246100       2.58976500       7.08879600      -0.24479629      -0.08187679       0.16747242
Pt       7.23987600       2.64663100       6.92231400       0.45470631       0.04423686       0.42012446
Pt      10.07433200       2.59475800       7.04394900       0.19926308       0.13501995       0.10100631
Pt      11.58167600       5.00408600       7.02423700      -0.33747943      -0.12725522       0.25288653
Pt       3.12140500       5.06323400       7.14401600       0.21259837       0.62477400      -0.17349034
Pt       6.54725000       3.77468300      21.51630000       0.91032845       2.95294666      -4.66024979
Pt       8.88405600       4.93608000       6.78344500      -0.98161898       0.51685502       0.33486050
Pt       1.62290200       7.51006200       7.26095900      -0.24895325       0.26946654       0.10074714
Pt       4.15564900       7.48596000       6.71572500       1.31572358      -0.50330377       0.91897199
Pt       7.57859800       7.64274900       6.09706900      -0.76385887      -1.91621865       4.46086689
Pt      10.02839100       7.50761900       7.15711200      -0.18346005      -0.09559465       0.23983149
O        8.45365900       7.46759100      20.26324300      -0.86828269       0.70574679      -4.57009713
O       11.24156400       6.48940000       8.43151300       0.26618633      -0.23367781      -0.32642368
O        7.22476500       1.04180700       8.24899400      -0.20216894       0.18164588      -0.22202866
O        4.52298000       4.21128800       8.13825000       0.01635736      -0.28353254       0.13338370
O        8.55556700       0.63908400      12.72524700      -0.01085674      -0.01969619       0.02211612
H        8.57183400       0.88386200      11.76524200      -0.03794743       0.00391116       0.09837041
H        9.49627800       0.39828300      12.92542700       0.05639510       0.00239884       0.00347407
O        3.11248300       4.87032000      10.81419800      -0.04886999      -0.19737332      -0.17436040
H        3.30608900       5.77576000      10.48329400       0.04606183       0.07695415       0.02171554
H        2.25286700       4.96048000      11.27943000      -0.10796166      -0.06046155       0.08174515
O        3.41954200       7.56284200      10.09895200       0.00828512      -0.09874117      -0.09585793
H        2.48909900       7.86686700      10.19665000      -0.00837614       0.02703824       0.12527907
H        3.72147200       7.85711700       9.21631300      -0.03656366       0.06769972       0.14380130
O        0.98962400       7.81237200      11.46125400      -0.05763077       0.03336367      -0.15707076
H        0.19652800       7.27320100      11.21722500      -0.01201785      -0.01437658       0.03611218
H        1.51412600       7.24036600      12.05757900      -0.00254128      -0.05780097       0.02669114
O        3.67841400       6.64928800      13.53809400       0.04143333       0.20470971      -0.19323744
H        3.49471100       6.25682500      14.40154000       0.01128869      -0.19303895       0.07460262
H        4.24236200       6.01043600      13.06728300      -0.13515519      -0.07828547       0.03927926
O        9.39554100       6.65833800      11.27545800       0.14454126      -0.00518643       0.06615089
H        9.18319000       5.71000200      11.36284500       0.13535779       0.04355141       0.00737701
H        9.30367400       6.99269700      12.18491900      -0.05530392       0.03548534       0.01059243
O        8.73640400       1.93022200      10.32099000       0.06263979       0.01526618       0.03647573
H        8.62370500       2.73620300      10.86765200       0.05213375      -0.01692917       0.09034754
H        7.89929300       1.78143800       9.83911400       0.01737140       0.07604912       0.00688027
S        2.59946700       1.67206700      15.33375800      -0.38266245      -0.50948161      -0.54560973
O        1.87996500       0.56576300      15.96652600       0.19984826       0.09403245       0.37156094
O        1.81162200       2.41838000      14.32975800       0.10842549      -0.01849189       0.11897164
O        4.00210400       1.43451900      14.97952000       0.10859981      -0.07361377      -0.02659498
H        5.68666400       0.21883600      14.09991500      -0.07230560      -0.01616247       0.00508976
C        2.74643000       2.92682600      16.71836400      -0.76448467       0.49207062      -0.07253648
C        3.65115800       2.63570900      17.85716000       1.19422917       0.96609569       1.16822915
O        3.16379500       2.72762300      19.07518900       0.50575351      -0.54962219      -0.46875276
F        1.49299100       3.15913200      17.22536900       0.00806247      -0.51919576      -0.03522154
F        3.22074900       4.11375400      16.18608100       0.15250705       0.16035817      -0.10813855
F        4.28060000      -0.79545700      18.33722300      -0.02361147       0.99203143      -0.17030629
F        4.95881400       2.76389600      17.66909500      -1.01210249      -0.21306014       0.28691611
C        3.99788500       2.49807800      20.31870100      -0.10445827      -0.17464888      -0.45747179
C        4.78437000       3.78701400      20.69823900       0.88905412       1.30383685       0.48456608
C        2.87749000       2.19695100      21.39784000      -0.33819779      -0.19457699       0.84225952
O        3.48078900       1.95915800      22.60241600      -0.34303969      -0.25172182      -0.86856139
F        7.36715900       1.05657900      21.12873900       0.22175355       0.30205374       0.00484190
F        5.03690300       3.48986300      22.61354900      -0.90421591      -0.92183980       2.24297863
F        3.98544300       4.87320200      20.68464600       1.13157035      -1.45494522      -0.26452026
F        4.76640300       1.42856100      20.09377400      -0.13122963       0.30709156       0.37124521
F        2.20749700       1.06494500      21.03808200       0.49765968       0.36678075       0.05611176
F        1.98144300       3.21713200      21.38241200       0.26014115      -0.07748997       0.19466338
C        3.00524100       2.25486400      23.88497500      -0.30080469      -0.04511515       0.52430454
C        1.84579000       1.21881200      24.15808600      -0.01717189      -0.05163084       0.24487857
F        4.05442000       1.93071200      24.70282400       0.16244025      -0.07330627       0.05033346
F        2.28165000       0.00495900      23.72569500       0.18901672       0.13345415       0.22871610
F        0.76115200       1.60329600      23.42261200      -0.21551297      -0.02031274      -0.24131862
C        1.37939700       1.03459600      25.63436200       0.07139954      -0.04875686      -0.14343209
F        2.40759500       0.69336100      26.43582700       0.02356365       0.11341600       0.06144114
F        0.82186900       2.18048200      26.09536200      -0.29661534       0.30061803       0.37954473
F        0.45026100       0.05349300      25.66522900      -0.28717887       0.21964987       0.16317507
C        2.64429100       3.80226400      24.17934200      -0.31842858      -0.15373090       0.17518624
F        2.77740100       4.01656000      25.51313700       0.01581434      -0.33175461       0.13965925
F        1.37628600       4.10826400      23.82429800      -0.05023062       0.11670444       0.25812232
F        3.45070700       4.66904800      23.55603300      -0.19252319       0.49361019      -0.07503251
O        0.68469900       4.74334800      12.36765200      -0.04683008       0.04142819       0.13865703
H        1.01774300       4.03194100      12.94562700       0.04469092      -0.01002627       0.02609978
H        0.17850700       5.32767000      12.97578500      -0.05332417       0.00500285       0.08355675
O        1.34305800       7.02863900      30.73319000      -0.12703822       0.06529574       0.17115269
H        1.03754900       7.94149500      30.56225900       0.00615214      -0.02122652      -0.03455152
H        2.31107900       6.98503000      30.41931100       0.17841246      -0.00809949      -0.09431784
O        8.99910000       4.56255400      27.36497200       0.04350204      -0.08796927       0.11437810
H        8.86517900       4.70545000      28.34298300       0.03264684      -0.00032807      -0.15468632
H        9.94725100       4.40530200      27.23290200       0.00823473      -0.01537674      -0.02508780
O        8.10319000       5.19519400      29.86646000      -0.00112974      -0.01558551       0.14994006
H        7.16701100       4.84035400      29.86622400      -0.02094164      -0.01019083      -0.05138967
H        8.49163600       4.86515400      30.71494600      -0.02006695      -0.01212635      -0.15843653
O       10.29498700       6.28297500      14.28962500       0.08914992      -0.25269421      -0.07633194
H       10.78897900       6.33544900      15.15820500      -0.01653579       0.05345427       0.03664594
H        9.38461900       6.47552800      14.55565600      -0.16516922       0.01737397       0.00583126
O        6.89730300       8.21653700      21.92395900      -0.61917825       0.26715975       0.50994955
H        7.07952700       9.13582800      21.57024000      -0.24833105       0.19925331       0.40797342
H        7.32865500       7.67644800      21.20826900       0.08663384       0.29190662       0.87133767
O       11.10679000      -0.00144500      13.28313200      -0.00330541       0.03983359      -0.13177573
H       11.74421900       0.69963700      13.52061900      -0.02835670       0.01580252      -0.12846569
H        0.43161200      -0.59435000      12.60374000       0.02541330       0.03017755       0.06790130
O        6.27580500       8.90711100      25.55221600       0.13168626       0.00178229       0.05663472
H        5.48466200       8.41628300      25.21472300      -0.07194153      -0.03934971      -0.04501796
H        6.78562800       8.20503900      26.02204200      -0.06162061       0.00367719      -0.06562073
O       -0.22027800       4.45834400      18.95336800       0.07891590       0.07444167       0.01966226
H        0.74177000       4.61787000      18.83270600      -0.06720710      -0.00108295      -0.00170618
H       -0.44475000       5.14740300      19.64095500       0.13540304      -0.05803494       0.04584329
O        4.26399100       2.17290500      30.67786700       0.15285261       0.01742385       0.02844926
H        4.72941200       3.00044000      30.34691400       0.02401051       0.08096816      -0.11065463
H        4.81111100       1.42331800      30.36140300      -0.02652864       0.02903033      -0.04108623
O        2.43533500       5.74391500      18.34965900       0.15806269       0.02974818      -0.17390532
H        2.74496600       6.43029500      19.04281300      -0.07197444      -0.05097212       0.08450805
H        3.14722700       5.75416500      17.68984000      -0.07558632       0.02351943      -0.02134376
O        7.73287900       7.84900400      29.38811100       0.01097655      -0.04555224       0.29624150
H        8.44363500       8.54851700      29.59644300      -0.04664804      -0.01323038      -0.04269369
H        7.95321300       6.99246100      29.83731300       0.01068448       0.03490890      -0.06792032
O        3.23902900       7.58648900      19.99902300       0.38503610      -0.20084071      -0.00570528
H        3.85498800       8.12702100      19.22128800      -0.03056888      -0.21918810       0.42633213
H        2.45372600       8.11970000      19.77717000      -0.25606852      -0.38328209      -0.06926090
O        8.57306800       0.31467500      18.95444900      -0.04674626      -0.13855727      -0.08794459
H        8.13697900       0.56854700      18.05752300       0.26960024      -0.11789126       0.23393441
H        7.93880700       0.59309600      19.67383600       0.10505477       0.06929124      -0.07561923
O        5.53217100       1.02539100      27.48723300       0.21903641      -0.02506620       0.22524665
H        5.79086400       0.40814400      26.74115100      -0.04099419      -0.04101630      -0.04588751
H        5.25296200       0.42864300      28.20749500      -0.01104083       0.00064689      -0.05893946
O        7.99295000       1.72065300      24.20806100      -0.10840492       0.13204673      -0.07874261
H        7.04447800       1.57932300      24.35150800      -0.11001340      -0.09453330       0.13350814
H        8.31096500       0.81625400      23.99824800       0.06286193      -0.09062934      -0.07306870
O        8.88063600       2.89164100      21.60833900       0.30745151       0.37822524       0.54007620
H        8.12906600       2.06493100      21.50420900       0.00160334      -0.11445832      -0.19785514
H        9.55901400       2.51657500      20.79375400       0.44097508      -0.31553969      -0.01665047
O        4.14478700       7.28497400      24.77279000       0.07258482      -0.08795179       0.13499938
H        4.58316800       6.41464700      24.78984500      -0.05973290       0.04600527      -0.04071805
H        4.09233800       7.54815800      23.76211500      -0.02347674       0.01540605       0.02384904
O        7.80701600       2.06939100      28.48661300       0.08710692      -0.03439571       0.00523837
H        6.97915500       1.69354500      28.06168100      -0.09041851      -0.05723790      -0.01624012
H        8.18387300       2.67406500      27.81627600       0.01176434       0.01740380       0.03554962
O        1.10642100       9.19490400      19.31316100       0.72009252      -0.37600947       1.75520844
H        0.01870800       7.18484500      19.59944900       0.10187020       0.10744178       0.00210059
H        1.32376200       0.45534400      18.92114200      -0.03141220      -0.48015458       0.36801076
O        7.45356000       6.82528800      26.92486800       0.18667856       0.11010442      -0.00329564
H        8.12027700       6.09838600      26.84828000      -0.00689004       0.00457605       0.00161980
H        7.62234200       7.24094700      27.82199400      -0.00027819      -0.04437724      -0.15588497
O        5.97533400       8.12777700      16.90496900       0.80904189      -0.86646852      -0.80491167
H        7.67688500       7.42683900      19.58989000       0.90909998      -0.22343094       0.98549415
H        5.06228700       8.20281600      17.36935400       0.47153881       0.44105530      -0.36970872
O        5.07201600       2.38102900      12.51564200      -0.04141430      -0.10330025      -0.14072317
H        4.36811400       2.41899200      11.83992100       0.13603399       0.13369532       0.24133147
H        4.61281900       2.15198700      13.35245200      -0.02719456       0.05757266      -0.11445472
O        8.03618400       4.87566000      20.50497800      -0.49146435      -1.39052571       0.63569656
H        8.71458700       3.88270700      21.22000300       0.48416087      -0.67254716      -0.23342636
H        8.09090200       5.71597200      19.97947100      -0.15160974      -0.48675255       0.64520759
O        2.83324600       7.03965700      27.08834900      -0.05307631       0.01101461       0.05447551
H        1.93384600       6.70917700      26.93969100       0.01223897      -0.00413845      -0.03634306
H        3.19140200       7.25885800      26.17554700       0.07202895       0.03442090      -0.09771890
O        5.36717600       8.89984500      29.86756100      -0.08279724       0.11325093       0.12795404
H        6.29360200       8.51759200      29.71867100       0.13046447      -0.04276053      -0.07051971
H        5.33760000       9.00847900      30.86109200       0.01411330      -0.02477001      -0.05332366
O       10.17916400       9.34420600      15.88647900       0.02068555       0.06517541       0.12539117
H       11.04053800       9.60126700      16.27423400      -0.14156032      -0.09675165      -0.02649471
H       10.41861600       9.23951300      14.93749600       0.02540507      -0.06185869       0.01159722
O        8.83392200       8.54491900      23.74483100      -0.11949768       0.00793854       0.08767360
H        8.11027800       8.26543200      23.10510100      -0.11761667       0.15824216       0.07716190
H        8.51171200       8.28810300      24.62414500       0.02363718      -0.02924733      -0.00621281
O        5.44080000       4.45533300      29.63099300      -0.02896348      -0.02063362       0.23131034
H        5.39587400       4.47585500      28.63207200      -0.02215880       0.01291157      -0.22531659
H        4.88405500       5.23814300      29.87148900      -0.01767685       0.02458900      -0.05402248
O        7.89954700       1.17430300      16.59180000      -0.15474443      -0.16627583      -0.26323625
H        8.72677900      10.37874500      16.22380000       0.13570078      -0.08887944      -0.03931011
H        7.18686900       0.70301100      16.09674900       0.15000383       0.02161629       0.02797823
O        8.80260700       3.42447500      12.85043300      -0.04482359       0.03362952      -0.07561358
H        8.64030700       2.49627300      13.14895200      -0.03649733       0.03802508      -0.13599183
H        9.48030400       3.76990700      13.45538900       0.02153916       0.04739212      -0.09566150
O        3.77758800       6.79115300      29.70263000      -0.19938444      -0.05101840       0.12406808
H        3.47180900       6.85856400      28.76366000      -0.05153674       0.00425260      -0.22745729
H        4.37849300       7.59836500      29.80310700      -0.05750118      -0.04491975      -0.05498305
O        5.23548600       5.19447100      26.96560800       0.10904512      -0.05164421       0.37356178
H        4.42697200       5.73050300      27.08543700      -0.04353084      -0.00560295      -0.10330230
H        5.98866900       5.84525200      26.96222600      -0.01397498      -0.00788403      -0.02193408
O       10.36564000       2.01582500      19.86706300      -0.10315935       0.11107732       0.12106914
H       10.58162300       2.86784800      19.37361400      -0.06039882       0.00771382      -0.06146788
H        9.74534200       1.42049100      19.32322900       0.02564264      -0.09235249      -0.02464454
O       11.02208700       8.68576600      22.18620100      -0.07023123       0.01587348      -0.03648036
H       10.29352100       8.63681700      22.85883400       0.03458905      -0.03100751       0.03431137
H       10.86696800       9.52521700      21.72191200      -0.07455686       0.00073328      -0.03211308
O        9.35471600       0.25256900      29.70541800       0.01850732       0.04085072       0.12777561
H        9.45733300       0.59023900      30.62016600      -0.01121052      -0.02245653      -0.11920715
H        8.81881700       0.95823200      29.21977900      -0.07047651       0.11607915      -0.06419531
O        6.51180200      -0.23834200      14.33503100      -0.07283267       0.04477525       0.13632350
H        7.17915500       0.08685000      13.68141600       0.14711905      -0.00866770      -0.08698505
H        5.93739000      -1.57374800      15.91983300      -0.20175962       0.30169841       0.65593526
O       11.11103300       6.64610100      20.40999100      -0.01694151      -0.17091255      -0.20416463
H       10.91298100       7.31258200      21.12289100       0.13950241      -0.04839794      -0.00228982
H        8.84217300       8.23108500      19.67219700       0.08212156      -0.33402541       1.15746599
O       11.23228500       6.33210400      16.79209200       0.12390918       0.08225988       0.06503349
H       12.11643000       6.30781200      17.22980100      -0.05070113       0.00113334      -0.00848875
H       10.72497100       5.66349900      17.29434300       0.09032183      -0.05800666       0.01560403
O        4.31975400       8.07536800      22.36590600      -0.12670397      -0.11049831      -0.00528002
H        3.87979300       7.86786500      21.48480100      -0.11243949      -0.05625368       0.21582921
H        5.30263900       8.10501500      22.17717500      -0.07768486       0.03314615       0.03990764
H       12.64717500       9.17071800      20.25565600      -1.64955255       0.61359433      -2.38026989
256
Lattice="11.099 0.0 0.0 0.0 9.612 0.0 0.0 0.0 33.0" Properties=species:S:1:pos:R:3:REF_forces:R:3 system_type=FORCED_Naf1.0PtO_neb_img03 REF_energy=-254724.30688430055 al_round=1 source=cp2k_sp REF_stress="-0.02274320381718911 -0.006611736087770208 -0.005449168814966004 -0.00019440441614129795 0.0021204073065516946 -0.0008052915323067931" _cp2k_dir=cp2k_sp_round1 orig_idx=576 pbc="T T T"
Pt      11.06747900       9.25827800       0.00242800       0.09082525       0.39065499       0.10855558
Pt       2.79683700       9.26279600       0.00188800      -0.09287134       0.00556232       0.15997405
Pt       5.51664700       9.26068100       0.00305700       0.28115581      -0.12291520       0.00792260
Pt       8.34711400       9.26097000       0.00242800      -0.16250196       0.04629632      -0.14006240
Pt       1.35818500       2.05168100       0.00125900       0.05622592       0.04685013      -0.06848237
Pt       4.19653200       2.05120100       0.00242800      -0.31921894      -0.23892029      -0.58351088
Pt       6.90923800       2.05293100       0.00000000       0.40398924      -0.00375535       0.00998514
Pt       9.74403400       2.04850900       0.00125900      -0.16952210      -0.00116265      -0.05414281
Pt      11.06747900       4.45227800       0.00242800       0.15073248      -0.07360092      -0.04821024
Pt       2.79683700       4.45689200       0.00188800      -0.23401206       0.13663666       0.46761737
Pt       5.51664700       4.45468100       0.00305700       0.34622118       0.35806265      -0.01815456
Pt       8.34711400       4.45497000       0.00242800      -0.20946316       0.08955513      -0.09101912
Pt       1.35818500       6.85768100       0.00125900       0.30599164      -0.14914251      -0.53118584
Pt       4.19653200       6.85720100       0.00242800      -0.15287523       0.08659939      -0.06442414
Pt       6.90923800       6.85883500       0.00000000       0.26781384       0.01841990      -0.09851748
Pt       9.74403400       6.85450900       0.00125900      -0.48243978      -0.00707568       0.04336834
Pt       1.38193600       0.68821900       2.37238200      -0.02933475      -0.07488133      -0.23263960
Pt       4.16712000       0.69168000       2.37975600       0.09269342       0.14328862      -0.16820672
Pt       6.93188000       0.68687400       2.37175300       0.11515766       0.10991775       0.16988668
Pt       9.71717500       0.69196800       2.37975600      -0.27902179       0.07605272      -0.03052568
Pt      11.09367200       3.09573700       2.37975600       0.01648746      -0.01016614      -0.00208671
Pt       2.77919000       3.09045000       2.37112300      -0.25382755       0.07400150       0.00197872
Pt       5.54550400       3.09429500       2.37975600       0.05850340       0.04218923      -0.12925708
Pt       8.32902300       3.08910500       2.37049400      -0.25399056      -0.13697759       0.18542489
Pt       1.38193600       5.49421900       2.37238200      -0.27188647      -0.09677633       0.04352415
Pt       4.16712000       5.49768000       2.37975600       0.15219286      -0.03378430       0.24699150
Pt       6.93188000       5.49287400       2.37175300      -0.08298390      -0.03060127       0.09698099
Pt       9.71717500       5.49806400       2.37975600       0.08167778       0.11540449       0.07186337
Pt      11.09367200       7.90173700       2.37975600      -0.06443802      -0.32816792       0.18327545
Pt       2.77919000       7.89645000       2.37112300       0.02579691       0.18326516      -0.25826785
Pt       5.54550400       7.90029500       2.37975600       0.00668230      -0.15827764       0.47970567
Pt       8.32902300       7.89510500       2.37049400      -0.09095947       0.00852321      -0.15752482
Pt      10.89922100       1.63303600       4.70047500      -0.24342435      -0.21269504      -0.31644626
Pt       2.58017500       1.62182500       4.64732200       0.14967267       0.19466698       0.09741088
Pt       5.40144200       1.67036200       4.71264500       0.23774633      -0.29977882      -0.19907385
Pt       8.18107500       1.61747100       4.76050600      -0.17811781       0.13759877       0.15758704
Pt       1.07382500       3.92213000       4.77270300       0.08848092       0.09938343      -1.02666060
Pt       3.91896900       4.00331400       4.71315700       0.19401032      -0.03268592       0.59574162
Pt       6.74954800       4.05830300       4.72213300       0.06272978       0.12937741       0.08326827
Pt       9.54193700       4.02672300       4.70064200      -0.42640206       0.00641593      -0.02187546
Pt      -0.15144500       6.38468200       4.79526000      -0.04558463       0.05381885      -0.23657853
Pt       2.64743800       6.44547500       4.60094600       0.10439965       0.05994270      -0.01528624
Pt       5.43309400       6.43813900       4.77750800      -0.04876612       0.05372372       0.18378812
Pt       8.18780800       6.41523900       4.67428400       0.01244928       0.11565543       0.16327175
Pt       1.26436800       8.82747800       4.67868400      -0.00665813       0.19059178      -0.11654297
Pt       4.05118300       8.88754400       4.72834200      -0.13254963      -0.09468397       0.01101152
Pt       6.79539300       8.84320800       4.74031400      -0.02825385      -0.11615114      -0.01973733
Pt       9.61803500       8.82999000       4.64073100      -0.03246841       0.08497497       0.09007758
Pt      10.82776600       0.31949100       6.95847600      -0.05815373      -0.50399128      -0.17697367
Pt       2.61261900       0.10186600       6.99619400      -0.66809349      -0.47193939      -0.24128519
Pt       5.06817400       0.96398000       7.17549800       0.64672351      -1.07749439       0.04557024
Pt       8.09389400       0.10462400       7.03349100      -0.22230480       0.34195829       0.06620385
Pt       3.08240900       2.64286900       7.12807600       0.06680344       0.50818269       0.03363775
Pt       4.91116500       4.66598100       7.15127400      -0.85004688      -0.14250186      -0.69648259
Pt       6.93095100       2.70102200       7.02064700      -0.07695158       0.32354919      -0.11405106
Pt      11.47909600       2.77049700       7.26093200       0.59199552       0.26467606       0.35377919
Pt      -0.07089000       5.32824700       8.16898700      -0.32025303       0.20209541       0.31175605
Pt       2.11320200       5.00176100       6.77220400       0.86572855       0.52439401       1.13947393
Pt       7.30914200       5.78664600       7.06967400       0.05750735       0.12584060       0.11990803
Pt       9.18572300       3.80375200       7.20909400      -0.04686299       0.22421358       0.01906525
Pt       0.98401000       7.51597100       7.01278000       0.43078631      -0.09500227       0.50354288
Pt       3.67338200       7.17687100       6.95800500      -0.62879161      -0.18338960       0.12201531
Pt       6.00836000       8.14534700       7.19883000      -0.09950530      -0.60405811       0.23846058
Pt       9.43496200       7.39695100       6.97667500       0.08171584      -0.35110422       0.12565034
O       10.96481900       1.86497800       9.19997000       0.25742144       0.55888434      -0.46805137
O        3.94967000       7.43305100       8.97441000      -0.14589469       0.09762479      -0.19104532
O        7.45883800       5.77056700       9.15726500      -0.22868525      -0.31748601      -0.25899958
O        5.27693800       7.84774400       9.11243000       0.53123778      -0.20786034      -0.52915724
O        0.57860000       6.57082300       9.60859000       0.01433801      -0.42858802      -0.34914555
O        2.68594800       2.01449700       9.18101800      -0.17470082       0.29936333      -0.13371074
O        8.65301000       3.24875800       9.15810800      -0.02077966       0.42266882      -0.12613010
O       10.85474700       0.55896000       8.96482000       0.07296483       0.12484249      -0.20580602
O        8.26870900       8.93459100       8.98267200      -0.11713638       0.86320630      -0.33475046
O        1.02375100       7.71795600       9.05438800       0.39406324       0.12647155       0.17057522
O        9.22374500       7.99691300       8.94520400       0.16754955      -0.53861633      -0.21053377
O        8.63866900       5.53376400       9.61756100       0.05032575       0.04517377       0.36093560
O        4.81238400       0.73475800       9.20347500       0.25292047       0.40863471       0.29055473
O        2.55208000       0.72641800       9.09645300      -0.17960597      -0.90277507      -0.26510955
O        7.35990800       2.92006400       9.04063500      -0.29475283      -0.32556288      -0.12380480
O        4.69494600       1.90172500       9.70575900       0.10293669       0.12550173      -0.06085133
O       10.48571000       2.45057300      12.75967200      -0.15745231      -0.54034514      -0.18227632
H       10.50597500       1.80317600      12.04610700      -0.05822624       0.08070282      -0.67372884
H       10.67529600       1.84530900      13.53397800       0.05057823       0.23034823       0.20981180
O        7.29021600       4.73485900      15.93569100      -0.54198704       0.66773714      -0.50785565
H        6.50819000       4.23488500      16.23438900      -0.01776221       0.20280452      -0.09591707
H        6.94701500       5.53120600      15.50639300      -0.56779527       0.25413403       0.21557108
O        3.18393300       9.10410100      12.20229600       0.20100577       0.16771153      -0.19427360
H        3.56174700      -0.08949700      11.40299400      -0.22397858      -0.20831439       0.15882940
H        3.83630400       9.29166800      12.89932600      -0.13157570       0.11119148       0.03974823
O        0.85644800       8.17615000      13.75612400       0.03062338       0.18814820       0.04715455
H        0.06386100       7.91059400      13.23314500       0.01606168      -0.09436772      -0.09979892
H        1.57530900       8.39538800      13.12277400      -0.07325382      -0.02009729      -0.08354338
O        4.67246400       5.02824800       9.30410500       0.85811089      -0.69466379       0.18189579
H        4.16668000       5.90082900       9.26481300       0.36050520       0.19093116       0.37190547
H        5.58579500       5.21193500       9.67596700      -0.80525877       0.06082613      -0.33428097
O        9.63649300       7.22697000      12.47545200      -0.14622996       0.08378300      -0.11162754
H        9.36304600       7.58765000      11.61543600       0.04606543      -0.06184326      -0.02942576
H        8.93663100       6.57052200      12.70927000       0.02225136      -0.08038966      -0.01834122
O        5.08915200       2.55927600      12.23901400       0.26269786       0.28601674      -0.02456946
H        4.15315400       2.69817900      11.97325100       0.69467407       0.02495821      -0.01145786
H        5.65733000       2.99406900      11.55607300      -0.73389626      -0.31264977       0.55176958
S        3.66071500       0.55473200      16.35459700       0.04574199      -0.18852461      -0.00337072
O        2.91701200       0.93477400      15.13436400       0.09220285       0.00114414       0.76818346
O        5.13456200       0.68542200      16.17404700      -0.32115086      -0.04481845       0.23497622
O        3.22375200      -0.67073000      17.04686700       0.14825548       0.23559174      -0.15547256
H        6.18573600      -3.99405800      26.58826500       1.60573118      -0.06278120      -4.31871676
C        3.20234400       1.98640800      17.67611300       0.13683669       0.24983566      -1.02827011
C        3.11561200       1.75042300      19.15979700       0.15938218      -0.67229570       0.66938059
O        3.00301900       2.74539300      20.00192800       0.53165429      -0.11184454       0.01629051
F        1.91738800       2.35749200      17.30601200       0.00553147      -0.16556363      -0.01641187
F        4.06428500       3.01936000      17.48178300      -0.18859095      -0.11150927      -0.32799514
F        2.93953400       0.52549500      19.61734600       0.19103195       0.51232577      -0.11097499
F        6.44948700      -4.08861400      25.57339100      -1.60118752      -2.18660513      -0.44312195
C        3.65796800       2.73068200      21.35542500      -0.11401455      -0.14588389       0.02652659
C        4.49381600       4.09153000      21.37396000       0.16416341       0.32429635      -0.61867123
C        2.53281000       2.62535100      22.47835300       0.01714515       0.05342856       0.26618993
O        3.19586700       2.27722600      23.66317200      -0.08832614      -0.14910343      -0.46133565
F        5.67462900       3.86613600      20.75485000       0.06402767      -0.45900931       0.06832039
F        4.74290700       4.58402600      22.60884400      -0.24403268      -0.77252811      -0.07985744
F        3.81122600       5.03198800      20.68644100       0.05799072       0.04820973       0.23527498
F        4.45796900       1.65101000      21.40525700      -0.15517997       0.12164610       0.62587186
F        1.64446400       1.68256900      22.10838800      -0.27411716      -0.11964115      -0.08928516
F        1.87539700       3.81003900      22.58225800      -0.11432977       0.05691703      -0.11328744
C        2.71243500       2.19143900      24.99445600      -0.02541690      -0.06099840      -0.00431945
C        1.53291000       1.15958500      25.25196800       0.06084208      -0.02618000      -0.00512010
F        3.81375800       1.68325100      25.65174100      -0.07784530       0.33949157       0.23711795
F        1.79692200       0.01823100      24.55565400      -0.17805199       0.00944521       0.28361841
F        0.35726800       1.69201300      24.80473700       0.29877352       0.25623976      -0.35943511
C        1.28570900       0.70878500      26.76857200      -0.08548199      -0.01437504      -0.09043393
F        2.39211800       0.19880600      27.36018400      -0.13793044       0.39070075      -0.22732205
F        0.78411900       1.68331400      27.54481500       0.05642492       0.06650005      -0.08925585
F        0.35919200      -0.29563500      26.71504200       0.11903077       0.20337170      -0.41893969
C        2.43447100       3.63041600      25.56609000       0.05201394      -0.05929993       0.09042211
F        2.33404300       3.57515500      26.91661800       0.31867952      -0.10683963      -0.04189150
F        1.30481600       4.16492300      25.06777600       0.07866908      -0.02204567       0.19558897
F        3.47812700       4.42371500      25.23772300       0.04987478      -0.25750063      -0.25771866
O        0.08815100       4.65646200      13.73909100      -0.13002790       0.35494133       0.02331425
H       -0.09753700       3.99964800      13.01178600       0.14462405       0.06979157       0.51896024
H        0.22103200       5.53089600      13.33711900      -0.03551054      -0.04310763      -0.03996060
O        1.12569400       7.07478700      30.77004800      -0.19093631      -0.06381993       0.12198137
H        0.76327500       7.97972000      30.68947900      -0.02078326      -0.00781770      -0.03847502
H        1.97946200       7.04988100      30.21391100       0.11459768      -0.03880926      -0.06728372
O       10.25776400       5.02471500      27.05247200       0.15725639      -0.03186163       0.11162959
H       10.26811300       5.06194200      28.03413700      -0.06205409       0.02026132      -0.16334065
H       11.02152400       5.55927900      26.75144000      -0.01449280      -0.10361906       0.01259841
O        9.04509700       4.86641000      29.55849600      -0.03345263      -0.10572686       0.19835908
H        8.68207100       4.02233600      29.19075500      -0.00857206      -0.09918751       0.04639916
H        9.40113600       4.63249200      30.44127400      -0.02444399      -0.02177982      -0.00128144
O        7.76974700       5.05146100      12.94003100       0.36583407       0.10650898       0.10732608
H        7.79672400       4.83090400      13.89891700      -0.11463419      -0.20002053      -0.26360391
H        8.41793000       4.43291100      12.54964500      -0.09733117      -0.03036319       0.08201974
O        7.34278500       8.18946200      22.67408400      -0.08554678      -0.13339450       0.47464316
H        7.54380000       8.84380500      21.95035400      -0.35455515      -0.28441545       0.16344710
H        7.35116100       7.27995700      22.33751100       0.29858686       0.05086619      -0.23902108
O       11.16985800       0.85792600      14.75445200       0.28739382       0.11674403      -0.06549680
H       11.97962500       1.32973000      15.03384600       0.13964588      -0.12546882       0.14181795
H        0.42465900      -0.03247100      14.40776300      -0.07784838      -0.11430251      -0.01182862
O        4.89041500       6.81844700      26.52652700      -0.20618398       1.67012858       0.44234393
H        4.43713200       6.88143500      25.61169200       0.78488175      -0.20274744       0.86146772
H        5.87874900       7.00884600      26.37455800      -2.05742673       0.54565395      -0.28795586
O        0.27683800       4.14373200      19.91007100       0.14919341      -0.23160653       0.03556607
H        1.09183100       4.38780300      19.39414900      -0.05076746       0.03585301      -0.10605904
H       -0.25350000       4.97695500      19.93178900       0.02206058      -0.00336815      -0.00290432
O        4.00617800       2.27021700      30.83333100      -0.14061519       0.08555758       0.08368016
H        4.17500900       3.25945800      30.57861100      -0.02701355      -0.00491955       0.04675037
H        4.72406100       1.79620000      30.33862100       0.08001479      -0.08859045      -0.08374341
O        2.35346300       5.00607500      18.29922900      -0.15498817      -0.05845712       0.01430870
H        2.66451100       5.86524400      18.67175200      -0.06961159      -0.10239933       0.00014141
H        1.69070000       5.22288700      17.61113100      -0.07337415       0.00966786      -0.05851831
O        7.70582100       7.27875100      29.31389100      -0.16497485      -0.04368562       0.57809922
H        8.36410300       8.03617400      29.27133700       0.01480081       0.01376055      -0.01691220
H        8.16802400       6.49152300      29.69120400      -0.04760912      -0.07148490       0.10406798
O        3.04276500       7.37875100      19.52756700      -0.08788134       0.20613307      -0.16715771
H        3.37481900       7.83901900      18.72706500      -0.04135671       0.13069124      -0.07265835
H        2.09699600       7.66498800      19.54669600       0.00561118       0.15388825      -0.09435384
O        7.14145800       0.67740700      21.17932200      -0.14081059       0.22170933      -0.18663742
H        7.64795300       0.61200400      20.33594800       0.36225406      -0.00990183       0.08406582
H        7.50773200       1.43437600      21.69400800       0.08265223      -0.13162712      -0.04264689
O        5.66362000       1.26406500      28.89478500       0.08299676       0.08058969       0.03865294
H        5.55513300       0.27496100      29.06956300       0.02098843       0.07146742      -0.04255485
H        5.04573500       1.49009100      28.17800800      -0.01327306      -0.01982269      -0.03498140
O        8.96613000       0.76649800      25.83462700      -0.20695685       0.15647375      -0.06919199
H        8.03267900       0.74252200      25.57090400      -0.12133397       0.01505124      -0.07840477
H        9.28544400      -0.12076800      25.49200900      -0.16430996      -0.17907529       0.07426478
O        8.73704500       2.45644800      22.80994500       0.13271624       0.10285390      -0.12377086
H        9.11726100       2.13586800      23.64897000      -0.05096904      -0.09398206      -0.09190820
H        9.41656800       2.28242100      22.11205200      -0.08400617      -0.03019195       0.02436069
O        3.28694300       7.02668200      24.20940900      -0.37467558       0.18844799      -0.11704331
H        2.96700900       6.22752100      23.75629500       0.12975484      -0.01231918       0.09594124
H        3.43052100       7.65848400      23.43875100       0.21471798      -0.13379096       0.10590272
O        8.22663900       2.41470200      28.38180000      -0.13093601       0.11441256       0.11145784
H        7.31209200       2.04959800      28.47110000       0.01440281      -0.07706060       0.02352251
H        8.55782900       2.13729300      27.50447400       0.00286267       0.02848320      -0.06310413
O        0.54115300       8.56067300      19.00119800      -0.11424338      -0.02076937      -0.11854843
H        0.04387100       8.39200100      18.18019600       0.09335008      -0.04596927      -0.10876384
H        0.36734900       9.48997300      19.22624100      -0.07896270       0.03597539       0.02786356
O        7.81574200       6.28307800      26.91121800       1.22585117       0.63581946       0.60729667
H        8.53083500       5.61996000      26.75039400       0.27061017       0.19877611       0.53630696
H        7.76768200       6.56407900      27.83372600       0.84251457       0.44744346       1.08775258
O        7.29014000       1.14101700      14.08041200      -0.39906507       0.07340500       0.07737273
H        6.61096500       1.00921200      13.37746400       0.27134551       0.25242064       0.54205286
H        6.78723800       1.48753400      14.85328300      -0.27355151      -0.18064726      -0.72188046
O        6.03903400       1.11827400      18.54614000      -0.42755443       0.79618021      -0.06899659
H        5.77467100       0.56282700      17.73086700       0.21747626       0.28067296       1.41974476
H        6.06455300       0.79651000      19.47839100      -0.17312524      -0.58018541      -0.97935281
O        9.58348100       5.64631500      22.66231100      -0.03353284      -0.19288674       0.15672469
H        9.35478100       4.73852100      22.92987200      -0.06297146      -0.00242969      -0.09113224
H        9.68979700       5.60708700      21.69030800      -0.15933333       0.14349225       0.08613505
O        1.62570300       6.74857700      26.67754500       0.03945821       0.11307867       0.15842676
H        1.01615600       7.50066500      26.77727000       0.04571679      -0.06045898      -0.02352508
H        2.06482000       6.93217900      25.81361500       0.07830861      -0.03186008      -0.03245658
O        5.32328200       8.34623200      29.67028900       0.06597246      -0.08674748       0.21763207
H        6.20650800       7.85789100      29.59124200      -0.07822685      -0.01292597       0.04098442
H        5.21221000       8.47532100      30.64756300       0.02498495      -0.03321351      -0.04865350
O        9.22337800       7.18094300      17.51061900       0.25575331       0.12505590       0.03153304
H        9.72072900       6.51794700      16.96449900       0.06138406      -0.02354719      -0.07406372
H        8.68851300       7.75541700      16.93641900       0.17784579      -0.12822864      -0.15781227
O        9.32641100       7.78973700      25.05204100      -0.26314472       0.05825246       0.13067993
H        8.85027300       7.75758400      24.19217900      -0.03428361      -0.10971669      -0.05614056
H        8.74198600       7.25091100      25.64944100       0.17518110       0.27909790      -0.09704270
O        4.64948000       4.63575600      30.14429600       0.12701045      -0.07122059      -0.04558566
H        5.11952500       4.51030200      29.26717400       0.02352971       0.01130411       0.13514696
H        3.97678900       5.33049800      29.95266000      -0.02245910       0.07218167      -0.05634676
O        8.57482400      -0.04072700      18.96037100       0.31567904       0.25202058      -0.13807699
H        9.01287300       8.70043100      18.97224200      -0.08308520       0.14289832      -0.03988810
H        8.58101300       0.25360000      18.01339700       0.03303971      -0.08454868      -0.02694002
O        9.05976300       3.22432200      16.25172600       0.64429433      -0.55490581       0.10618657
H        9.27613400       3.44221800      15.32195400      -0.32632598      -0.27813682       0.29064112
H        8.38138200       2.50250100      16.23308600       1.07747280       0.34881542      -0.04949734
O        3.15002100       6.79878000      29.16704100      -0.03732831      -0.02673485       0.24128262
H        2.79156400       6.76194100      28.24574300       0.06558988       0.06480775      -0.07824845
H        3.93494000       7.41753400      29.18501200      -0.05410373      -0.05572249      -0.07798979
O        5.59095800       4.27643200      27.70163800       0.18881926      -0.09374808       0.35610861
H        5.15322000       5.03773000      27.24343400      -0.97673645      -0.24759108       0.24824928
H        6.53212800       4.40850500      27.45574900       0.02206418      -0.63086392       0.37276216
O       10.23287300       1.75735100      20.41482000       0.13333639       0.05660541      -0.05549418
H       10.66986100       2.61453500      20.12540900      -0.04665010       0.09401702       0.00944212
H        9.67644100       1.43679300      19.67195800      -0.01938355      -0.03339606       0.18296589
O       10.89096400       8.82643300      21.80611200      -0.11141054       0.08598849      -0.20651976
H       10.33433200       8.67736200      22.58569300      -0.05216923      -0.05258472       0.01710349
H       10.66677500       9.72531000      21.48119100      -0.05354580      -0.06952675       0.03643922
O        9.32994900      -0.31589500      28.78566700      -0.14572757       0.06688005       0.06720453
H        9.19895100      -0.31581600      27.81564800       0.09053832       0.12262877      -0.04953745
H        9.05455100       0.59333700      29.03435700       0.03473663      -0.01871712       0.03779471
O        8.98423700       0.63407300      16.15948800      -0.48384617      -0.78947477       0.09995216
H        8.29440200       0.45400800      15.46467200       0.95435397       0.02700018       0.05982289
H        9.89457900       0.76511700      15.69943900      -0.94911663      -0.20181053       0.14560158
O        9.87650600       6.52010700      20.04742500      -0.05789559       0.03113041       0.05925725
H       10.33390900       7.33079700      20.36829600       0.06802522      -0.12853254       0.00494886
H        9.55024900       6.72277100      19.13794100       0.02182455      -0.11290692       0.15252659
O       10.97554400       5.14023700      16.66190800      -0.14281142      -0.06517233      -0.10796886
H        0.06415100       4.93183400      15.71655400      -0.03418025       0.11909711      -0.08102678
H       10.40237700       4.38685700      16.94041500       0.05554972       0.08100672      -0.06473884
O        3.98308200       8.39483200      21.97011900       0.06730583       0.21526614      -0.00916855
H        3.75685700       8.06757600      21.05980700      -0.00351727      -0.11206154       0.20531443
H        4.93639500       8.60092400      21.97100700       0.06346666      -0.14341769       0.06327537
40
Lattice="23.28 0.0 0.0 0.0 14.0 0.0 0.0 0.0 9.838" Properties=species:S:1:pos:R:3:REF_forces:R:3 system_type=FORCED_Zig4x4sat REF_energy=-5085.974960269562 al_round=1 source=cp2k_sp REF_stress="-0.00010321538046722007 -1.33787391680935e-06 0.002926484257964781 -5.103254322750285e-15 3.551948009535134e-10 -3.773531307666044e-17" _cp2k_dir=cp2k_sp_round1 orig_idx=593 pbc="T T T"
C        8.09000000       7.00000000       0.00000000       0.20418417      -0.00000000       0.32742796
C        8.80000000       7.00000000       1.22975600      -1.23421034      -0.00000000       0.00137965
C        8.09000000       7.00000000       2.45951200       0.20523010      -0.00000000      -0.32693019
C        8.76567400       7.00000000       3.68690900       0.80206443      -0.00000000       0.05156656
C        8.09726300       7.00000000       4.91945600      -0.44632452      -0.00000000      -0.00835557
C        8.77027900       7.00000000       6.14878100       0.72875251      -0.00000000       0.00028231
C        8.09726300       7.00000000       7.37810500      -0.44691227      -0.00000000       0.00832318
C        8.76567400       7.00000000       8.61065200       0.80192662      -0.00000000      -0.05149200
C       10.22000000       7.00000000       1.22975600       0.43290387      -0.00000000      -0.00030030
C       10.93000000       7.00000000       2.45951200      -0.56653748      -0.00000000       0.07865622
C       10.21883400       7.00000000       3.68741900      -0.38782626      -0.00000000      -0.01957381
C       10.92175500       7.00000000       4.91777000       0.03557790      -0.00000000       0.02164509
C       10.21895800       7.00000000       6.14878000      -0.35123689      -0.00000000       0.00031522
C       10.92175500       7.00000000       7.37979100       0.03505031      -0.00000000      -0.02253726
C       10.21883400       7.00000000       8.61014200      -0.38791933      -0.00000000       0.01962883
C       10.93000000       7.00000000       0.00000000      -0.56758906      -0.00000000      -0.07836414
C       12.35000000       7.00000000       0.00000000       0.56759163      -0.00000000      -0.07837083
C       13.06000000       7.00000000       1.22975600      -0.43290593      -0.00000000      -0.00030082
C       12.35000000       7.00000000       2.45951200       0.56653851      -0.00000000       0.07865879
C       13.06116600       7.00000000       3.68741900       0.38782060      -0.00000000      -0.01957792
C       12.35824500       7.00000000       4.91777000      -0.03557430      -0.00000000       0.02164612
C       13.06104200       7.00000000       6.14878100       0.35122969      -0.00000000       0.00030802
C       12.35824500       7.00000000       7.37979100      -0.03505082      -0.00000000      -0.02253521
C       13.06116600       7.00000000       8.61014100       0.38791728      -0.00000000       0.01964323
C       14.48000000       7.00000000       1.22975600       1.23420777      -0.00000000       0.00138017
C       15.19000000       7.00000000       2.45951200      -0.20522958      -0.00000000      -0.32693019
C       14.51432600       7.00000000       3.68691000      -0.80206443      -0.00000000       0.05156708
C       15.18273700       7.00000000       4.91945600       0.44631937      -0.00000000      -0.00835660
C       14.50972000       7.00000000       6.14878100      -0.72874788      -0.00000000       0.00028128
C       15.18273700       7.00000000       7.37810500       0.44691021      -0.00000000       0.00832523
C       14.51432600       7.00000000       8.61065200      -0.80193536      -0.00000000      -0.05149663
C       15.19000000       7.00000000       0.00000000      -0.20418212      -0.00000000       0.32743053
H        7.00000000       7.00000000       0.00000000       0.05600069      -0.00000000       0.08914735
H        7.00000000       7.00000000       2.45951200       0.05600789      -0.00000000      -0.08912318
H        7.00789500       7.00000000       4.91919600      -0.01102849      -0.00000000       0.01425780
H        7.00789500       7.00000000       7.37836400      -0.01103620      -0.00000000      -0.01428145
H       16.28000000       7.00000000       2.45951200      -0.05600274      -0.00000000      -0.08912318
H       16.27210500       7.00000000       4.91919600       0.01103415      -0.00000000       0.01425882
H       16.27210500       7.00000000       7.37836400       0.01104289      -0.00000000      -0.01428248
H       16.28000000       7.00000000       0.00000000      -0.05599503      -0.00000000       0.08914735
14
Lattice="5.603 0.0 0.0 0.0 5.603 0.0 0.0 0.0 5.603" Properties=species:S:1:pos:R:3:REF_forces:R:3 system_type=pt3o4 REF_energy=-23101.114721742004 al_round=3 source=cp2k_sp stress_missing=T _cp2k_dir=cp2k_sp_round3 orig_idx=770 pbc="T T T"
Pt       0.00000000       4.20198900       2.80132600      -0.00000309       0.00312698       0.00000000
Pt       0.00000000       1.40066300       2.80132600      -0.00000309      -0.00312749       0.00000051
Pt       2.80132600       0.00000000       1.40066300       0.00000000      -0.00000309      -0.00312749
Pt       2.80132600       0.00000000       4.20198900       0.00000051      -0.00000309       0.00312749
Pt       1.40066300       2.80132600       0.00000000      -0.00312749       0.00000000      -0.00000309
Pt       4.20198900       2.80132600       0.00000000       0.00312749       0.00000000      -0.00000309
O        1.40066300       4.20198900       4.20198900       0.10494627      -0.10494473      -0.10494370
O        4.20198900       4.20198900       1.40066300      -0.10494473      -0.10494370       0.10494627
O        4.20198900       1.40066300       4.20198900      -0.10494421       0.10494627      -0.10494473
O        1.40066300       1.40066300       1.40066300       0.10494473       0.10494473       0.10494473
O        4.20198900       1.40066300       1.40066300      -0.10494370       0.10494524       0.10494575
O        1.40066300       1.40066300       4.20198900       0.10494524       0.10494627      -0.10494370
O        4.20198900       4.20198900       4.20198900      -0.10494524      -0.10494473      -0.10494524
O        1.40066300       4.20198900       1.40066300       0.10494575      -0.10494370       0.10494524
14
Lattice="5.603 0.0 0.0 0.0 5.603 0.0 0.0 0.0 5.603" Properties=species:S:1:pos:R:3:REF_forces:R:3 system_type=pt3o4cell_optimised_structure REF_energy=-23100.41042239284 al_round=3 source=cp2k_sp stress_missing=T _cp2k_dir=cp2k_sp_round3 orig_idx=771 pbc="T T T"
Pt       0.00000000       4.32249400       2.88260600       2.66998542      -0.24508580      -0.58592926
Pt       0.00000000       1.44272200       2.88260600       2.76013447       0.25689848      -0.62740835
Pt       2.88260800       0.00000000       1.44272100      -0.62743098       2.76010311       0.25687174
Pt       2.88260800       0.00000000       4.32249000      -0.58595034       2.66995662      -0.24506420
Pt       1.44272200       2.88260800       0.00000000       0.25689539      -0.62742378       2.76002906
Pt       4.32249400       2.88260800       0.00000000      -0.24508323      -0.58594160       2.66988155
O        1.44140700       4.32380900       4.32380600      -1.25283953      -0.00459713      -0.86586688
O        4.32381000       4.32380900       1.44140500      -0.00458582      -0.86591110      -1.25286575
O        4.32381000       1.44140600       4.32380600      -0.86593938      -1.25282359      -0.00450920
O        1.44140700       1.44140600       1.44140500      -0.08254784      -0.08255350      -0.08255350
O        4.32381000       1.44140600       1.44140500      -1.03900138      -0.23076681      -1.02211797
O        1.44140700       1.44140600       4.32380600      -0.23075447      -1.02207580      -1.03893504
O        4.32381000       4.32380900       4.32380600       0.20281635       0.20281326       0.20290273
O        1.44140700       4.32380900       1.44140500      -1.02210049      -1.03898081      -0.23076424
2
Lattice="2.816 0.0 0.0 0.0 2.816 0.0 0.0 0.0 2.816" Properties=species:S:1:pos:R:3:REF_forces:R:3 system_type=mptrj_pt REF_energy=-3414.9109253675488 al_round=4 source=cp2k_sp REF_stress="0.19196330554524865 0.19196330554899357 0.19196330555086602 -1.192787713604866e-11 -1.1767466837929183e-11 -1.2044987759445755e-11" _cp2k_dir=cp2k_sp_round4 orig_idx=815 pbc="T T T"
Pt       0.00000000       0.00000000       0.00000000       0.00003034       0.00003034       0.00003034
C        1.40802500       1.40802500       1.40802500      -0.00003034      -0.00003034      -0.00003034
16
Lattice="6.499 0.0 0.0 0.0 6.499 0.0 0.0 0.0 6.662" Properties=species:S:1:pos:R:3:REF_forces:R:3 system_type=mptrj_pt REF_energy=-28398.022846837874 al_round=4 source=cp2k_sp REF_stress="-0.00738663347196212 -0.007386639941910425 -0.0032479391171423115 -3.4141435656588163e-09 -2.474803619236904e-09 9.183720394589153e-09" _cp2k_dir=cp2k_sp_round4 orig_idx=818 pbc="T T T"
Pt       0.00000000       0.00000000       1.66561700      -0.00000154      -0.00000103      -0.00000000
Pt       0.00000000       0.00000000       4.99685000      -0.00000103      -0.00000154      -0.00000000
Pt       0.00000000       3.24969600       3.33123300      -0.00000154      -0.00000000       0.00000051
Pt       3.24969600       0.00000000       0.00000000       0.00000051      -0.00000154      -0.00000257
Pt       3.44011000       1.66684100       3.33123300       0.52550422       0.22813966       0.00000051
Pt       3.05928300       4.83255100       3.33123300      -0.52550422      -0.22813966       0.00000051
Pt       1.66684100       3.05928300       0.00000000       0.22813966      -0.52550370      -0.00000154
Pt       4.83255100       3.44011000       0.00000000      -0.22813966       0.52550422      -0.00000154
S        5.24344500       1.99906900       1.82057300       0.04905151       0.12341296       0.06066416
S        1.25594800       4.50032400       1.82057300      -0.04905048      -0.12341245       0.06066416
S        1.99906900       1.25594800       5.15180700       0.12341296      -0.04905048       0.06066621
S        4.50032400       5.24344500       5.15180700      -0.12341245       0.04905151       0.06066621
S        1.25594800       4.50032400       4.84189400      -0.04905048      -0.12341245      -0.06066313
S        5.24344500       1.99906900       4.84189400       0.04905100       0.12341296      -0.06066364
S        4.50032400       5.24344500       1.51066000      -0.12341193       0.04905151      -0.06066467
S        1.99906900       1.25594800       1.51066000       0.12341296      -0.04904997      -0.06066467
209
Lattice="12.859 0.0 0.0 0.0 13.791 0.0 0.0 0.0 49.295" Properties=species:S:1:pos:R:3:REF_forces:R:3 system_type=oc25_pt REF_energy=-180595.85679977958 al_round=4 source=cp2k_sp REF_stress="0.0012688984562297643 0.0009003757190981479 0.0008854411407425382 0.00032350874053753057 -0.0012968665976250907 0.0023088286125136437" _cp2k_dir=cp2k_sp_round4 orig_idx=825 pbc="T T T"
Pt       0.10584000       1.07178900      23.70084300       2.10362894       3.74558131       1.30919914
Pt       0.62667700      10.34302000      24.59977700       0.06646148       0.20716614       0.65304585
Pt       0.62667700       5.74612200      20.10425500       0.18991095      -0.85692098       0.49444323
Pt       0.62667700       3.44767300      22.45453400      -0.17578582       0.23117253      -0.48276425
Pt       0.62667700      12.64146800      22.24949800      -8.47420085      -6.43611139       2.49449167
Pt       1.49944400       8.04288000      25.85682600      -0.16281821       0.14325314      -0.18065755
Pt       3.77735200       2.26808600      23.77665300       0.26912870      -0.18613348       0.03567869
Pt       3.84153200      11.49224400      23.42463800      -0.31937475      -0.42632133       0.46500667
Pt       3.84153200       6.89534600      18.92911500       0.31348795       0.30315468       0.37962084
Pt       0.72783300      11.02869600      27.90547800      -0.09175702      -0.43203227       0.33873670
Pt       0.62667700       6.89534600      23.52715600      -0.07243518       0.01640107       0.45845498
Pt       0.62667700       2.29844900      19.03163300      -0.14594097      -0.22416165      -0.62734305
Pt       5.37238500      13.60352700      25.62095000      -0.47163909      -1.52545876       2.22764097
Pt       5.40946300       9.07525400      21.06094900      -0.49957618       0.02781420      -0.19029044
Pt       5.97999000       4.46039700      25.57105100       0.00529904       0.30076664       0.18017830
Pt       2.27360200       0.11854100      21.49783900       6.42231485       8.08636225      -2.48718768
Pt       2.27360200       9.31233600      21.29280400      -0.24205601      -0.02768307      -0.84992295
Pt       3.27677900       4.55316500      25.44987900      -0.05217437      -0.14225709       0.00671984
Pt       4.00733700      12.61323000      19.92286200       0.94040882      -0.51302254      -0.07500731
Pt       4.15162000       7.95584300      24.84597700      -0.11157714       0.17874568      -0.07635817
Pt       4.00733700       3.41943500      20.12789800       0.35150840      -0.06146480       0.50948316
Pt       3.88055900      10.28933800      26.87311800      -0.63368030      -0.14213214      -0.00415593
Pt       3.67572800       5.77436100      22.43089100      -0.04034318      -0.00263847      -0.05623209
Pt       3.67572800       1.17746300      17.93536800       0.47901969       1.27430156      -0.63758787
Pt       6.61364700       1.26929100      24.07226700       0.82988737       2.00217012      -0.65911366
Pt       7.05638800      10.34302000      24.59977700      -0.06760562       0.28104885       0.34888433
Pt       7.05638800       5.74612200      20.10425500       0.17637255      -0.84096780       0.44273937
Pt       7.05638800       3.44767300      22.45453400      -0.05033552      -0.14734222      -0.30478836
Pt       7.05638800      12.64146800      22.24949800      -8.42738980      -5.73846049       3.17733970
Pt       7.47513900       8.47409100      26.77177700      -0.86174231       0.23918615       0.45389230
Pt      10.18132600       2.24944000      23.70379100       0.37505867      -0.02874442      -0.03943250
Pt      10.27124400      11.49224400      23.42463800      -0.42819875      -0.56938112       0.45740289
Pt      10.27124400       6.89534600      18.92911500       0.26563560       0.29809475       0.30112865
Pt       6.54614700      11.00132400      27.88320800      -0.17070635       0.11565029      -0.16427756
Pt       7.05638800       6.89534600      23.52715600       0.21010080       0.45897075       0.17968207
Pt       7.05638800       2.29844900      19.03163300      -0.17005535      -0.20015423      -0.57797169
Pt      11.76611900      13.49951500      25.62614700      -0.83498535      -0.51209694       0.38990165
Pt      11.83917500       9.07525400      21.06094900      -0.40456723       0.10675581      -0.27337616
Pt      11.57396300       4.59758600      25.54097700      -0.14387483      -0.14852904      -0.02132422
Pt       8.70331400       0.11854100      21.49783900       6.11049657       7.99879715      -2.50741970
Pt       8.70331400       9.31233600      21.29280400      -0.33491141       0.03289315      -0.84426704
Pt       8.85051100       4.99074400      25.89663800       0.25843600      -0.15993086       0.10702321
Pt      10.43704900      12.61323000      19.92286200       0.90102466      -0.51820588      -0.10542604
Pt      10.51546700       8.04021000      24.73500100       0.11601487      -0.03319397      -0.06667180
Pt      10.43704900       3.41943500      20.12789800       0.33737761      -0.08289854       0.37879603
Pt       9.75168300      10.02895600      26.53463100      -0.05995247      -0.15144879      -0.13670454
Pt      10.10544000       5.77436100      22.43089100       0.04434690       0.10731888      -0.07222486
Pt      10.10544000       1.17746300      17.93536800       0.45331946       1.28908077      -0.69195128
S        5.06734800      11.29570400      25.33587700       0.04320842       0.12470314      -0.31000873
S        5.08954400       6.74683700      20.87357900      -0.01877985      -0.02228632      -0.40530513
S        5.08954400       2.14994000      16.37805600      -0.83168457      -0.88258471       1.38334822
S        2.30809700       0.41373800      23.93570000       0.04535323       0.39798983       0.72947704
S        2.59352100       9.55157500      23.61646300       0.62316552      -0.54584987       0.12047059
S        2.59352100       4.95467700      19.12094100       0.01736729       0.68838464      -0.56977399
S        5.80303500       2.14612100      20.97236200      -0.30361542      -0.46872808      -0.25529359
S        5.80303500      11.33991600      20.76732600      -0.35092938       0.72583482      -1.19051136
S        6.05642700       6.84026800      25.65465900       0.02369837       0.02450776       0.06449201
S        1.88003000       0.36159800      19.22719400       0.29905326      -1.19224788      -0.54885498
S        1.88003000       9.55539400      19.02215800       0.57002081      -0.78817276       0.47265981
S        1.87212100       4.96092100      23.73545600       0.02615738      -0.02911415      -0.12475353
S        2.59352100       2.44695800      21.68521000       0.54577737       0.43373897       0.14250752
S        2.59352100      11.64075300      21.48017400       1.11108432      -1.38666392      -0.11229191
S        3.07066100       6.55845600      26.46670600       0.08111934      -0.01564774      -0.01438532
S        5.08954400      13.43291300      23.23281200       0.26167096       0.03958471      -0.40586512
S        5.08954400       8.83601600      18.73728900      -0.34784200       0.39943582       0.14998737
S        5.08956400       4.12960600      23.47996500      -0.02109282       0.10530108      -0.20044065
S        1.97985200      11.60861400      26.12012700       0.19142687      -0.18881823       0.05218928
S        1.88003000       7.04767400      21.58642700       0.08770805      -0.02586993       0.11989826
S        1.88003000       2.45077700      17.09090400       0.33231562      -0.22117402       0.45138702
S        5.56338400      13.11457800      27.95431700       0.37499440      -0.22288329      -1.37704233
S        5.80303500       8.83219700      23.33159500      -0.18650115      -0.06969644       0.18595608
S        5.80303500       4.23529900      18.83607300      -0.26899398       0.39290676      -0.47579707
S       11.40764600      11.22180300      25.41533300       0.13274915      -0.66918878      -0.39174256
S       11.51925600       6.74683700      20.87357900      -0.03066349       0.01438429      -0.48129564
S       11.51925600       2.14994000      16.37805600      -0.81103656      -0.90231175       1.41694534
S        8.75168400       0.42090200      23.92665700      -0.54590335       0.22118482       0.78477942
S        9.02323200       9.55157500      23.61646300       0.11747063      -0.50264865      -0.26294571
S        9.02323200       4.95467700      19.12094100       0.04154440       0.69613806      -0.54613629
S       12.23274700       2.14612100      20.97236200      -0.33050608      -0.48924806      -0.45641764
S       12.23274700      11.33991600      20.76732600      -0.26658537       0.60170298      -1.11039835
S       12.35054900       6.82763700      25.63383000      -0.07276377      -0.09844292       0.01962215
S        8.30974200       0.36159800      19.22719400       0.35911732      -1.19408416      -0.56531775
S        8.30974200       9.55539400      19.02215800       0.57734229      -0.80985128       0.38000136
S        8.32241600       4.98894500      23.73190400       0.01949153      -0.00582921      -0.08869381
S        9.02323200       2.44695800      21.68521000       0.39136101       0.30112197      -0.04650612
S        9.02323200      11.64075300      21.48017400       1.24543321      -1.34210875       0.02301703
S        9.21819300       7.23221600      26.46447600       0.33142396      -0.44843025      -0.33035644
S       11.51925600      13.43291300      23.23281200      -1.63819187      -2.65532550      -0.97912398
S       11.51925600       8.83601600      18.73728900      -0.37394744       0.37810697       0.20639944
S       11.46993400       4.13196200      23.37724600      -0.03620011       0.04816396       0.06301774
S        8.15703500      11.61738900      26.29683900      -0.38325946      -0.13796386       0.62488250
S        8.30974200       7.04767400      21.58642700      -0.09508300       0.16757526       0.06526437
S        8.30974200       2.45077700      17.09090400       0.30617521      -0.23157157       0.47156195
S       12.06063600      12.79538700      27.91503700       0.17288459       1.76987350      -1.32418405
S       12.23274700       8.83219700      23.33159500      -0.10777243       0.10754617      -0.56973182
S       12.23274700       4.23529900      18.83607300      -0.28227270       0.39671765      -0.42138430
C        1.92851600       8.46852800      29.12924500      -0.36253946       0.69697418       0.19725094
C        0.53258600       8.61662800      29.69679400       0.22513507       0.18217141      -0.19339068
C        4.31989300      10.61607400      31.13584400      -0.33546111       0.69439074       0.20554377
C        2.81359300      10.72022700      31.30008300       0.31719394       0.10788041      -0.23863799
C       11.99162900       4.80685400      28.32776800       0.18715421       0.08565837       0.08660145
C       10.55813100       5.27351800      28.49902300       0.20526095       0.24591472       0.33424961
C        0.59742300       0.56010500      27.75437400       2.46104213      -0.80687600       2.58934225
C       12.11494300      13.78077900      31.62557600       0.01239837       1.03040412      -0.07106067
C        9.50059600       2.76860500      31.34322800       0.00955679       0.06477741      -0.34316362
C       10.32705600       4.07242700      31.38122600      -0.07333815      -0.22594599       0.25626958
C        8.95596700       2.62527300      29.89288900      -0.13483380      -0.24612350       0.22009982
C       10.99745100       4.61116400      32.65881100       0.16222120       0.17613344      -0.20770350
C        8.05276400       1.41256300      29.58467100       0.22896910       0.31828768       0.03614611
C       11.79173500       5.89300300      32.27766900      -0.07943989      -0.28163352       0.12741308
C        9.45086200       8.89712700      33.88935700      -0.13352562      -0.03504568      -0.25079571
C        7.98734100       8.43707200      33.71588000       0.16593078       0.00732507       0.21723766
C       10.05169600       9.54107700      32.62332700       0.18403238       0.00824039       0.18180272
C        7.37396000       7.91876000      35.03460700      -0.20460069      -0.01612699      -0.20412967
C       11.50563300      10.01856800      32.84644900      -0.27347489      -0.11191036      -0.00088035
C        5.87741300       7.55656800      34.90160200       0.28901053       0.03910134       0.04135157
C        4.92569100      11.95745900      35.07412600       0.02011271      -0.18569691       0.14831667
C        6.14537600      11.32303800      35.77042600       0.00281330       0.30879311      -0.00139559
C        3.67610800      11.05774400      35.01105400      -0.18883931       0.28018445      -0.07092131
C        7.29616800      12.33844900      35.93617500       0.03690767      -0.19440421       0.19585483
C        2.46013700      11.86634100      34.49585300       0.20390649      -0.12922880       0.13561490
C        8.51191600      11.79416300      36.71990100      -0.22468718       0.14902012      -0.05059314
C        5.72889100       3.85301300      32.85230400      -0.14311893      -0.08304201       0.18455843
C        4.31243800       3.24389700      32.82662200       0.09049050       0.05992008      -0.12626174
C        6.34272500       3.82168700      34.26909000       0.16924082       0.06231583      -0.16710012
C        3.68339300       3.19450600      31.42007100      -0.16343578      -0.07926917       0.11760227
C        7.79037800       4.35434600      34.31542300      -0.31167892      -0.11376310       0.09137598
C        2.28833000       2.52835200      31.42284700       0.25197944       0.13201484       0.05846021
H        1.45238800      11.81940500      29.01534700      -0.00040006       0.03213056       0.03906997
H        2.33364300       9.81800500      31.73895600      -0.09206144       0.07616637       0.00318354
H        1.84114500       7.61789300      28.43478100      -0.00043657      -0.35686606      -0.27691349
H        0.14250100       7.82804900      30.36784000       0.06075723       0.05002390      -0.10189540
H        4.42818800      12.35997800      30.24721900       0.01658670      -0.05067336       0.02771135
H        4.76114300      10.17375600      32.04100700       0.04005111      -0.00282410       0.04446775
H        4.47680500       9.89547800      30.31599000       0.13672253      -0.21487482      -0.22291518
H        2.62401000       8.12431900      29.91052600       0.08565014      -0.03451398       0.14486368
H        0.05419200       6.44761300      27.90014500      -0.07314789       0.03525034      -0.06317201
H       12.17483600       3.89782500      28.92708100       0.01900920       0.11671215       0.07122779
H       12.14966800       4.34740100      27.25812700      -0.01846926      -0.03361666       0.14945772
H        9.79325500       4.57444000      28.04615600      -0.10131021       0.01392150      -0.06153525
H       12.74332800       2.29651100      27.32111000       0.03388251       0.10705457      -0.32917168
H        0.90751600       0.07448000      28.69342500       1.08901499       1.22483301       0.08620550
H        1.33319300       0.26306800      26.98511200      -0.72008532      -0.04473668      -0.24663206
H       12.10090900      12.68230300      31.46876600      -0.01053638      -1.02487779      -0.12869915
H       10.11242900       1.89261000      31.61780700       0.02781625       0.03700743      -0.02358267
H        8.65444600       2.80690600      32.04088000       0.03398690      -0.03878612       0.03430006
H        9.67822100       4.87276400      31.00754900       0.01794424       0.03367271      -0.03867968
H       11.12617600       3.94953400      30.63939000       0.01584777       0.05383222      -0.01684484
H        8.39197200       3.54263500      29.65540400       0.10949404      -0.02049889      -0.03510585
H        9.81111400       2.58075000      29.19959500      -0.01049781       0.05908858       0.00040418
H       10.24441800       4.87688800      33.40830700      -0.01420895      -0.09422940       0.05310357
H       11.66999500       3.86987400      33.11599400      -0.10244767       0.00230782      -0.02686906
H        8.59417200       0.47256900      29.74862800      -0.10389829      -0.08870872       0.00635320
H        7.75766700       1.44965800      28.52196100      -0.04861648      -0.14503903       0.15237233
H        7.13986500       1.41235000      30.19907600       0.07673818      -0.06933392      -0.04508430
H       12.69226600       5.64030900      31.69618800      -0.03881955       0.02773346       0.03629112
H       11.16586200       6.53946100      31.64565300       0.03963664       0.07743443       0.04714375
H       12.09707300       6.47003800      33.16084300       0.05315139      -0.01663247      -0.01156225
H        9.50325700       9.62311900      34.71412300       0.03546271      -0.04314466       0.03615794
H       10.07094100       8.03774300      34.19404700      -0.02780751       0.07982710       0.01203945
H        7.93791900       7.64824800      32.94704800      -0.05604645       0.08100672       0.00922358
H        7.38640800       9.27897100      33.33251300       0.00605495      -0.07600953      -0.00079344
H       10.02073000       8.82311100      31.78935500      -0.04268957       0.05439375       0.00845173
H        9.43141500      10.39935500      32.31920300       0.00782335      -0.11877161      -0.03900929
H        7.93816100       7.04009800      35.37910600      -0.00312698       0.05555126       0.00489127
H        7.49254700       8.68460500      35.81576500       0.04054013      -0.05996019      -0.01743774
H       11.54356300      10.82554300      33.59530300       0.06200936      -0.07372382      -0.05704558
H       11.94145200      10.39501600      31.91141900       0.07965073       0.03365163       0.02299286
H       12.13673400       9.19380400      33.21428800      -0.00042629       0.08643638      -0.04309581
H        5.28448500       8.44369600      34.63324700      -0.00364017      -0.06116655       0.00425312
H        5.71998200       6.79604600      34.12218800      -0.01877265       0.03287104       0.04935336
H        5.47958100       7.16288800      35.84913600      -0.03000015       0.00488253      -0.08777233
H        4.65631200      12.89076200      35.59615100       0.04099779      -0.04295080      -0.06828131
H        5.20040900      12.24750400      34.04750800      -0.01433287       0.09260240       0.04843393
H        6.50325700      10.47198800      35.17810100      -0.02781008      -0.07810086       0.06889117
H        5.85511700      10.92740000      36.75820100       0.02449233      -0.00456371      -0.12619644
H        3.86216700      10.19631300      34.35137700       0.02900205      -0.00481413       0.07641319
H        3.44928400      10.64247600      36.00620500       0.08284455      -0.02435658      -0.11316609
H        7.61761300      12.65885100      34.93836200       0.03593323       0.14391031      -0.05976221
H        6.91084900      13.23736800      36.44333700       0.01915061      -0.04259958      -0.07391254
H        2.12446600      12.57725000      35.26813000      -0.01741563      -0.05055252      -0.14251472
H        1.60819500      11.22278100      34.22805400       0.01539011       0.08986572       0.01795864
H        2.74925100      12.45263300      33.61084100      -0.15235536      -0.02753755       0.00703762
H        8.20147700      11.36999600      37.68834600       0.07628001       0.05479073      -0.09143255
H        9.02962900      11.00401800      36.15942100      -0.00657277      -0.03405221       0.04030719
H        9.24205800      12.59543500      36.91737100      -0.03535781      -0.11494580       0.00969563
H        6.37447900       3.30165200      32.14939700       0.00269400       0.07420616       0.02458592
H        5.69307100       4.89399900      32.48772500       0.06851528      -0.10147219      -0.00233302
H        3.65709100       3.81931900      33.50283300       0.04380235      -0.12540094      -0.03865140
H        4.35901000       2.22094300      33.23654700      -0.06819903       0.09084428       0.00385254
H        5.70687200       4.41006300      34.94764400       0.00411788      -0.07015975      -0.01246677
H        6.33002900       2.78521600      34.64322200      -0.07908303       0.10185837       0.03086867
H        3.60432300       4.21600200      31.01389500       0.06759379      -0.10295778      -0.01599792
H        4.35153000       2.64034800      30.74171400      -0.01391481       0.09663235       0.00918552
H        8.47896000       3.64110100      33.85016900       0.02952089       0.02789441       0.00350081
H        8.12889900       4.51533300      35.34951200       0.00909348       0.01561894      -0.05547258
H        7.87956900       5.30629500      33.77382600       0.03273889      -0.00852526       0.03232648
H        2.35420900       1.49964300      31.81168700      -0.09976498       0.05843707      -0.05473776
H        1.59044700       3.08436400      32.06980500      -0.00256442      -0.10383247      -0.08767257
H        1.86419300       2.48840000      30.40947600      -0.07987390      -0.03671638       0.02856187
O        2.36783200       9.64255400      28.49113800       0.24149140      -0.20232475      -0.12271362
O       12.62649100       9.55529900      29.38955900       0.36345734       0.02938000       0.02640369
O        4.96641100      11.86505200      30.89624100      -0.13838707      -0.46167040      -0.02099614
O        2.15364600      11.68959700      30.93060200       0.02772009      -0.03951632       0.19380617
O        0.12082000       5.75998500      28.59808300      -0.07838214      -0.38694746       0.10756828
O       10.24895300       6.29638000      29.07970700       0.13309779      -0.04493312      -0.23504307
O        0.56512000       1.97472700      27.94539900      -1.25982830      -1.91703729      -0.17493273
O       11.12600900       0.68952600      27.14914500      -1.03421450       0.90699887       0.33865699
F        6.15874300       8.89908600      28.63755800      -0.40618959       0.69825151      -0.44961039
209
Lattice="12.859 0.0 0.0 0.0 13.791 0.0 0.0 0.0 49.295" Properties=species:S:1:pos:R:3:REF_forces:R:3 system_type=oc25_pt REF_energy=-180595.66234557546 al_round=4 source=cp2k_sp REF_stress="0.0009113236914363839 0.00045723687609402504 0.00037326796776578135 0.00030973263408171764 -0.0012068218094235421 0.0027364608487605744" _cp2k_dir=cp2k_sp_round4 orig_idx=835 pbc="T T T"
Pt       0.08289400       1.06673200      23.68980600       2.45704664       4.05903378       1.51287784
Pt       0.62667700      10.34302000      24.59977700       0.01319953       0.26117062       0.62648996
Pt       0.62667700       5.74612200      20.10425500       0.19074553      -0.85537729       0.49323995
Pt       0.62667700       3.44767300      22.45453400      -0.18667085       0.23506775      -0.40932840
Pt       0.62667700      12.64146800      22.24949800      -8.42416358      -6.47345358       2.48299473
Pt       1.51855400       8.06592400      25.84869400      -0.28087967      -0.24234912      -0.10769581
Pt       3.78040700       2.27054200      23.79833000       0.14752477      -0.31928733      -0.12002939
Pt       3.84153200      11.49224400      23.42463800      -0.32270947      -0.47354942       0.56621918
Pt       3.84153200       6.89534600      18.92911500       0.31205276       0.30280656       0.37517077
Pt       0.74557000      11.00025400      27.91005100      -0.37165659       0.03447438      -0.02102494
Pt       0.62667700       6.89534600      23.52715600      -0.03520509       0.02929567       0.56225248
Pt       0.62667700       2.29844900      19.03163300      -0.14789964      -0.22441978      -0.62384532
Pt       5.36958900      13.58768600      25.63229100      -0.31949199      -1.09784108       1.99462599
Pt       5.40946300       9.07525400      21.06094900      -0.48638282       0.03433811      -0.18671147
Pt       6.01589800       4.44293600      25.56294300      -0.14761938       0.30705402       0.22290849
Pt       2.27360200       0.11854100      21.49783900       6.41250454       8.10218996      -2.47219044
Pt       2.27360200       9.31233600      21.29280400      -0.23538605      -0.04058332      -0.84724643
Pt       3.30192900       4.54551200      25.44874300      -0.15804367      -0.15198358      -0.05047539
Pt       4.00733700      12.61323000      19.92286200       0.94542247      -0.51364063      -0.07408840
Pt       4.12601600       7.95783300      24.85706900       0.25809095       0.10138015      -0.23506775
Pt       4.00733700       3.41943500      20.12789800       0.34699817      -0.07189011       0.51701546
Pt       3.89560600      10.25184300      26.91819500      -0.46938577       0.35161227      -0.69313707
Pt       3.67572800       5.77436100      22.43089100      -0.04447237      -0.02661966      -0.04516863
Pt       3.67572800       1.17746300      17.93536800       0.47834401       1.27538708      -0.63558806
Pt       6.60738500       1.28871100      24.07010900       0.65258871       1.71319610      -0.40194522
Pt       7.05638800      10.34302000      24.59977700      -0.02729072       0.40790298       0.30575767
Pt       7.05638800       5.74612200      20.10425500       0.17866957      -0.84926578       0.45910753
Pt       7.05638800       3.44767300      22.45453400      -0.12701045      -0.11596705      -0.31859673
Pt       7.05638800      12.64146800      22.24949800      -8.40855955      -5.75635588       3.20856112
Pt       7.46965400       8.52790700      26.76404600      -0.03117051      -0.52514889       0.22094520
Pt      10.19744200       2.25236800      23.70327100       0.16032064      -0.23370301      -0.02624171
Pt      10.27124400      11.49224400      23.42463800      -0.45106152      -0.60077327       0.53138741
Pt      10.27124400       6.89534600      18.92911500       0.26767500       0.30010741       0.29822074
Pt       6.50580700      10.97985800      27.87939700       0.05000950       0.22089840      -0.26336840
Pt       7.05638800       6.89534600      23.52715600       0.18268564       0.41013212       0.20689772
Pt       7.05638800       2.29844900      19.03163300      -0.17270307      -0.20361853      -0.57779994
Pt      11.75150600      13.48548900      25.64767600      -0.75350915      -0.64702536       0.04358843
Pt      11.83917500       9.07525400      21.06094900      -0.41322259       0.10416362      -0.28003635
Pt      11.55911500       4.59725400      25.52490400      -0.13922062      -0.02099152       0.45202157
Pt       8.70331400       0.11854100      21.49783900       6.11044875       8.01656913      -2.48132865
Pt       8.70331400       9.31233600      21.29280400      -0.34410156       0.04115102      -0.84867185
Pt       8.82220000       4.99101700      25.92000300       0.42655016      -0.26098242       0.03101059
Pt      10.43704900      12.61323000      19.92286200       0.90112287      -0.51625801      -0.11275317
Pt      10.53627900       8.04216600      24.72504800      -0.21069164      -0.06018902      -0.00103050
Pt      10.43704900       3.41943500      20.12789800       0.32891868      -0.08477956       0.37165248
Pt       9.74372800      10.01103100      26.54853900      -0.11985147       0.02320061      -0.25159583
Pt      10.10544000       5.77436100      22.43089100       0.04658325      -0.00356201       0.03558921
Pt      10.10544000       1.17746300      17.93536800       0.45318628       1.29259856      -0.68755726
S        5.06667500      11.30640100      25.34879000      -0.08003690      -0.38065134      -0.00881477
S        5.08954400       6.74683700      20.87357900      -0.01806971      -0.03189711      -0.39578588
S        5.08954400       2.14994000      16.37805600      -0.83230627      -0.88304699       1.38327160
S        2.30399900       0.42112800      23.93400900      -0.06292775       0.33947049       0.76122811
S        2.59352100       9.55157500      23.61646300       0.62658817      -0.49772293       0.13740285
S        2.59352100       4.95467700      19.12094100       0.01884876       0.68990776      -0.56629014
S        5.80303500       2.14612100      20.97236200      -0.31287551      -0.47098757      -0.26542837
S        5.80303500      11.33991600      20.76732600      -0.35121992       0.73122025      -1.19023471
S        6.04162900       6.82195900      25.64366200       0.20390495       0.25945261       0.13266173
S        1.88003000       0.36159800      19.22719400       0.30248311      -1.19209824      -0.54946741
S        1.88003000       9.55539400      19.02215800       0.56628346      -0.78441278       0.47570143
S        1.87680600       4.96100200      23.73787800       0.00843682      -0.05534763      -0.08703956
S        2.59352100       2.44695800      21.68521000       0.56469760       0.43147537       0.16157225
S        2.59352100      11.64075300      21.48017400       1.11874518      -1.38532386      -0.09898696
S        3.07830900       6.54094200      26.47544100      -0.09028069       0.22503736      -0.03278465
S        5.08954400      13.43291300      23.23281200       0.31440635       0.06934471      -0.29483048
S        5.08954400       8.83601600      18.73728900      -0.34784097       0.39810450       0.15325884
S        5.07698400       4.11709300      23.48989800       0.15997045       0.28060713      -0.27705233
S        1.98454100      11.60684100      26.10082200       0.11455551      -0.32351371       0.39194825
S        1.88003000       7.04767400      21.58642700       0.08738769      -0.03479680       0.11959024
S        1.88003000       2.45077700      17.09090400       0.33497054      -0.22061507       0.44771548
S        5.55790100      13.12676400      27.98258800       0.37492395      -0.42941745      -1.47004326
S        5.80303500       8.83219700      23.33159500      -0.26805809      -0.08647649       0.30682570
S        5.80303500       4.23529900      18.83607300      -0.26468892       0.39520070      -0.47987176
S       11.39056000      11.20194300      25.42778000       0.30291814      -0.57195325      -0.47500106
S       11.51925600       6.74683700      20.87357900      -0.05602948      -0.00778736      -0.45779781
S       11.51925600       2.14994000      16.37805600      -0.81010170      -0.90396549       1.41709807
S        8.74441400       0.42600300      23.93314200      -0.53766451       0.26292206       0.72736514
S        9.02323200       9.55157500      23.61646300       0.13642274      -0.53778175      -0.27161701
S        9.02323200       4.95467700      19.12094100       0.04354781       0.69641934      -0.54361712
S       12.23274700       2.14612100      20.97236200      -0.32509237      -0.45723268      -0.46149454
S       12.23274700      11.33991600      20.76732600      -0.27670317       0.59980602      -1.10159900
S       12.33577900       6.84183900      25.63169300       0.29098719      -0.17114395       0.06050372
S        8.30974200       0.36159800      19.22719400       0.36477735      -1.19411553      -0.55872956
S        8.30974200       9.55539400      19.02215800       0.57800666      -0.81377221       0.37769611
S        8.31692300       4.97845500      23.74321500       0.09991051       0.12190732      -0.17946044
S        9.02323200       2.44695800      21.68521000       0.42653576       0.31620046      -0.00964884
S        9.02323200      11.64075300      21.48017400       1.25560758      -1.33462633       0.03081107
S        9.28294200       7.20479000      26.48067400      -0.84045512       0.44770108      -0.19882548
S       11.51925600      13.43291300      23.23281200      -1.96829737      -3.01640200      -1.00596424
S       11.51925600       8.83601600      18.73728900      -0.37049137       0.37832089       0.20327812
S       11.46848300       4.12016200      23.39565500       0.05593384       0.21997538      -0.48118971
S        8.17726100      11.64439200      26.28499500      -0.58578168      -0.48535849       0.77419264
S        8.30974200       7.04767400      21.58642700      -0.06480157       0.15735667       0.10644676
S        8.30974200       2.45077700      17.09090400       0.30465312      -0.22992966       0.47297400
S       12.06288100      12.80374800      27.90781900       0.27469103       1.49008912      -1.19891115
S       12.23274700       8.83219700      23.33159500      -0.00539572       0.17470236      -0.67959558
S       12.23274700       4.23529900      18.83607300      -0.28103548       0.39726735      -0.41766288
C        1.91585500       8.47331500      29.14389700       0.29428952      -0.03328859      -0.13008240
C        0.52776900       8.61970400      29.70611200       0.07850196       0.05061114      -0.23990348
C        4.32017100      10.63532500      31.14351100      -0.09738260      -0.32159515      -0.16401891
C        2.82792700      10.72111800      31.28629100      -0.31919477      -0.07215442       0.26665016
C       11.98933600       4.81364600      28.31494700      -0.04103738       0.11730865       0.22594651
C       10.55053400       5.27290800      28.49978800       0.08560951       0.12285040       0.13301192
C        0.59591600       0.56384800      27.75902000       2.71966428      -1.14939324       2.57127870
C       12.11653200      13.78552900      31.62512600       0.00585903       0.70401901      -0.09850463
C        9.49859700       2.76672500      31.33507200       0.03569000      -0.04950197       0.19461144
C       10.32616500       4.06477700      31.38541300      -0.02028086       0.16048981      -0.15271377
C        8.95166100       2.61792200      29.90040700       0.08615973       0.24082651      -0.10877310
C       11.00047300       4.61813600      32.65411800       0.01188621      -0.20840233       0.18809164
C        8.06023900       1.42687400      29.58536400      -0.10393891      -0.28343689       0.10615263
C       11.79047500       5.89143500      32.27731500       0.03881081       0.01196849      -0.01042222
C        9.44715700       8.89835000      33.88386100       0.12995950      -0.06948304       0.22470826
C        7.99237000       8.43599700      33.72315300      -0.14300734       0.03396068      -0.24085222
C       10.05585800       9.54171200      32.62939400      -0.16757475       0.01965043      -0.20470765
C        7.36802300       7.91922800      35.03061800       0.17145146      -0.00824090       0.14870542
C       11.49917900      10.01711700      32.84699900       0.09883990      -0.01477510       0.09339533
C        5.88220400       7.55808900      34.90466700      -0.05267882      -0.02958671      -0.03281859
C        4.92575800      11.95022100      35.07898300       0.00092611       0.27507001      -0.10760530
C        6.15000900      11.33136900      35.76847900      -0.12497311      -0.25253943       0.12649777
C        3.67179100      11.06040600      35.00770200       0.08060100      -0.19069719       0.13751238
C        7.29836000      12.33235600      35.94061500      -0.05274773       0.32261279      -0.10635472
C        2.46684900      11.86059700      34.49941800      -0.08082366       0.11417910      -0.03485799
C        8.50724400      11.79604300      36.71732300       0.05002801      -0.06778303       0.09810970
C        5.72533900       3.85144600      32.85830700       0.10008123       0.10641951      -0.22539526
C        4.31591300       3.24687300      32.82232900      -0.14155415      -0.13196188       0.28244599
C        6.34893700       3.82405900      34.26412600      -0.18656389      -0.13264579       0.17780208
C        3.67913600       3.19176900      31.42552200       0.17676181       0.13698324      -0.23618670
C        7.78577400       4.35133900      34.31657000       0.05873788       0.05877234      -0.00195198
C        2.29393900       2.53044200      31.42419900      -0.06925113      -0.04229619       0.11443621
H        1.44743600      11.79934800      29.02057900       0.03757256       0.09164235       0.09901885
H        2.33122900       9.82541700      31.74280300       0.18316695       0.16359879      -0.16039571
H        1.85026500       7.61001800      28.41902200      -0.10167531       0.17767507       0.23864364
H        0.13590300       7.82464500      30.37290500       0.09549284       0.14284845      -0.12765014
H        4.42684400      12.35944600      30.24441000       0.10500438      -0.08149266       0.10253303
H        4.76327900      10.16443100      32.04243600      -0.05668923       0.16791362      -0.09855091
H        4.46693200       9.88769700      30.31363500       0.11881891       0.20209901       0.18179038
H        2.63847300       8.10934900      29.91698800      -0.31269091       0.19260855      -0.18303788
H        0.05408200       6.44332200      27.90065100      -0.00598501       0.00700420       0.04872652
H       12.17153700       3.91598900      28.91054400       0.02226627      -0.22658414       0.30117339
H       12.15379400       4.35140800      27.26527400      -0.05078700      -0.05791102      -0.14902321
H        9.78273200       4.55183900      28.03115500       0.15654163       0.36580064       0.17932520
H       12.74285400       2.29647100      27.32320400       0.08650220       0.08560283      -0.27300952
H        0.90851400       0.06622100      28.70121000       1.04787168       1.35655424      -0.10322466
H        1.33321200       0.26522500      26.98194000      -0.83861575      -0.00678514      -0.07162991
H       12.10465900      12.67631500      31.47042300      -0.00641850      -0.68680701      -0.08492817
H       10.11373700       1.89318500      31.62453900      -0.04839125       0.07814817      -0.09851440
H        8.65552900       2.80956000      32.04193200       0.08790294      -0.06564387      -0.04288909
H        9.67791100       4.87498300      31.00855700       0.13221488      -0.15610197       0.02291830
H       11.12723000       3.94714200      30.63559400      -0.10340926       0.06337616       0.10494678
H        8.38774800       3.53741100      29.65455300       0.17548140      -0.06430689       0.02287254
H        9.80421400       2.57565800      29.20042600      -0.01516025       0.08441241       0.04545454
H       10.24322000       4.87967100      33.41061000       0.12065057      -0.11301131      -0.09611401
H       11.67030100       3.87084900      33.11957800      -0.17622342       0.13291319      -0.09900188
H        8.58745300       0.47733300      29.74611000      -0.05522627      -0.06697621       0.01885853
H        7.76210600       1.45115600      28.52678800      -0.04704039      -0.06342398       0.02220045
H        7.14221200       1.41119800      30.19181100       0.05986917      -0.01633165      -0.01167230
H       12.69625100       5.64198700      31.69423100      -0.14969015       0.05256107       0.10470818
H       11.16023500       6.53663600      31.63841800       0.15665784       0.00574025       0.15340437
H       12.09644600       6.47596600      33.16235300      -0.01326638      -0.11674969      -0.15348664
H        9.50361200       9.62352200      34.71613100       0.01747270      -0.12043871      -0.07960136
H       10.07054800       8.03886600      34.19739300      -0.08395218       0.16273233      -0.04365991
H        7.93832900       7.64881400      32.94632300      -0.03458237       0.14289113       0.11395130
H        7.38748200       9.27632000      33.33001700       0.06531939      -0.14302739       0.06224230
H       10.02000700       8.82454000      31.78866100      -0.02004072       0.13103268       0.11274185
H        9.43135500      10.40154700      32.31866500       0.09779500      -0.22608277       0.01662167
H        7.93862700       7.04255500      35.38236600      -0.07986721       0.11740532      -0.04119679
H        7.49205800       8.68426100      35.81738800       0.00826096      -0.11688544      -0.10142437
H       11.54515200      10.82752800      33.59652500       0.03660223      -0.14144051      -0.11742229
H       11.94131900      10.39438100      31.91142400       0.00919838      -0.00277062       0.09196065
H       12.13847400       9.19481200      33.21650800      -0.07147359       0.14378947      -0.07366520
H        5.28160200       8.44112700      34.63296100       0.03860255      -0.06505457       0.03502871
H        5.71614300       6.79974800      34.12286400       0.01308537       0.03050460       0.08406428
H        5.47754900       7.16298900      35.85240000       0.04335240       0.04201080      -0.16095930
H        4.65532700      12.89454200      35.59402200       0.07685645      -0.21109838      -0.12670706
H        5.19839500      12.24347700      34.04664100      -0.04256616       0.05471205       0.19031924
H        6.50558600      10.47122600      35.17822300      -0.05977301       0.05352112       0.12820498
H        5.85802400      10.92663900      36.75569200       0.05373966       0.03583141      -0.17866803
H        3.86150000      10.18974000      34.34926100      -0.01648334       0.16807097       0.19366682
H        3.44604800      10.64427200      36.00677100       0.09390544      -0.01376003      -0.20819715
H        7.61613800      12.65704900      34.93582300       0.01337694       0.10075228       0.12499162
H        6.90969900      13.23885000      36.44417400       0.09171126      -0.17456043      -0.13161632
H        2.12424600      12.57486200      35.26505300       0.00604261      -0.05269373      -0.08270314
H        1.60797600      11.22519800      34.22903600       0.07447047       0.07610157       0.01178491
H        2.75320100      12.45563700      33.61858300      -0.15490589      -0.06176562      -0.01990291
H        8.20310100      11.36835100      37.68807600       0.07361377       0.06864075      -0.13242879
H        9.03570700      11.00673500      36.15976200      -0.08659528       0.00587908       0.06408886
H        9.24335900      12.59129200      36.91794700      -0.07582852      -0.06737114       0.00116985
H        6.37288700       3.30455200      32.14796500      -0.04816911       0.09815136       0.09589804
H        5.69272800       4.89420800      32.48463900       0.06480055      -0.20091733       0.07057576
H        3.65756900       3.81993400      33.50525300       0.11208828      -0.18144945      -0.12535723
H        4.36041800       2.22090900      33.23940200      -0.07394802       0.21894951      -0.06369240
H        5.70844800       4.40845100      34.94916100       0.08525007      -0.12033844      -0.09161921
H        6.33379500       2.78471000      34.64366900      -0.07662094       0.21050343      -0.02460237
H        3.60443600       4.21710000      31.01255300       0.05852860      -0.24798035       0.05458144
H        4.35199100       2.64031000      30.74019600      -0.11752513       0.15917598       0.11803318
H        8.48106300       3.64279100      33.84772500      -0.03069383       0.05192497       0.04515577
H        8.13290100       4.51549400      35.35040300      -0.06045744      -0.01502810      -0.12857368
H        7.88189100       5.30498200      33.77256100       0.00943081      -0.07097068       0.08598284
H        2.35371200       1.49788800      31.81398900      -0.08917049       0.15367433      -0.09132868
H        1.58935200       3.08352700      32.07149800       0.05902945      -0.13456641      -0.13446716
H        1.86499100       2.48803900      30.40977200      -0.02091593      -0.02069841       0.10227798
O        2.36372200       9.64079800      28.48591800       0.23746505      -0.42198080       0.20527278
O       12.61404500       9.54923700      29.38035600       0.40539924       0.06654375       0.02223079
O        4.96315000      11.86520900      30.89984800      -0.07347596      -0.07290312      -0.16191266
O        2.14841700      11.68016900      30.92574400       0.12689835       0.10130096      -0.01421769
O        0.11937600       5.75307900      28.59977000      -0.01450976      -0.01647357      -0.05552966
O       10.24752700       6.30164300      29.07545900       0.08713315      -0.27405853      -0.24020790
O        0.56724900       1.97355400      27.94714700      -1.38633841      -1.79400176      -0.17493684
O       11.12020600       0.68958000      27.15212100      -1.08462818       1.08313385       0.43118894
F        6.18491100       8.84003100      28.64047500       0.07435579       0.54092158      -0.37942081
209
Lattice="12.859 0.0 0.0 0.0 13.791 0.0 0.0 0.0 49.295" Properties=species:S:1:pos:R:3:REF_forces:R:3 system_type=oc25_pt REF_energy=-180595.80044120725 al_round=5 source=cp2k_sp REF_stress="0.0011296752132386922 0.0009371468731393321 0.0008516857175748827 0.0003310465610304239 -0.0013000090722269267 0.002275802831037917" _cp2k_dir=cp2k_sp_round5 orig_idx=837 pbc="T T T"
Pt       0.09757900       1.07041200      23.69613200       2.20940876       3.84084120       1.39227766
Pt       0.62667700      10.34302000      24.59977700       0.04460967       0.22352967       0.64699810
Pt       0.62667700       5.74612200      20.10425500       0.19032233      -0.85668650       0.49427045
Pt       0.62667700       3.44767300      22.45453400      -0.17200167       0.23599695      -0.45738797
Pt       0.62667700      12.64146800      22.24949800      -8.45457819      -6.45083044       2.49169791
Pt       1.50745900       8.05153700      25.85382600      -0.20839255      -0.00334706      -0.16148123
Pt       3.77806800       2.26828100      23.78568500       0.22844922      -0.22348185      -0.03039610
Pt       3.84153200      11.49224400      23.42463800      -0.31506969      -0.45001868       0.52514272
Pt       3.84153200       6.89534600      18.92911500       0.31322158       0.30299013       0.37766834
Pt       0.73424600      11.01791300      27.90598400      -0.17786739      -0.27025279       0.22649261
Pt       0.62667700       6.89534600      23.52715600      -0.05860522       0.02084908       0.50234217
Pt       0.62667700       2.29844900      19.03163300      -0.14660380      -0.22444961      -0.62572017
Pt       5.37130900      13.59796600      25.62617000      -0.40884760      -1.37060275       2.13048566
Pt       5.40946300       9.07525400      21.06094900      -0.49446843       0.03032308      -0.18928463
Pt       5.99526900       4.45248000      25.56819200      -0.04686556       0.31314650       0.18330116
Pt       2.27360200       0.11854100      21.49783900       6.41909582       8.09151320      -2.48194469
Pt       2.27360200       9.31233600      21.29280400      -0.23931110      -0.03279288      -0.84877984
Pt       3.28742200       4.54972200      25.44922900      -0.08518991      -0.14256305      -0.01253156
Pt       4.00733700      12.61323000      19.92286200       0.94212015      -0.51339278      -0.07460931
Pt       4.14175600       7.95640800      24.85046200       0.02791653       0.14747489      -0.13832793
Pt       4.00733700       3.41943500      20.12789800       0.35022233      -0.06538316       0.51352853
Pt       3.88880400      10.27482900      26.89014300      -0.60665235       0.03118028      -0.21453801
Pt       3.67572800       5.77436100      22.43089100      -0.04196452      -0.01309412      -0.04970457
Pt       3.67572800       1.17746300      17.93536800       0.47842628       1.27490217      -0.63670803
Pt       6.61119600       1.27754100      24.07144500       0.74790877       1.87999746      -0.54828676
Pt       7.05638800      10.34302000      24.59977700      -0.05637555       0.33133500       0.33899021
Pt       7.05638800       5.74612200      20.10425500       0.17737065      -0.84451386       0.44946949
Pt       7.05638800       3.44767300      22.45453400      -0.08328061      -0.13201124      -0.30484133
Pt       7.05638800      12.64146800      22.24949800      -8.42041182      -5.74597171       3.19092078
Pt       7.47634000       8.49540200      26.76746000      -0.54352919      -0.07740152       0.35871571
Pt      10.18683500       2.24959100      23.70405600       0.30377586      -0.08977573      -0.04307678
Pt      10.27124400      11.49224400      23.42463800      -0.43711637      -0.58525460       0.48778304
Pt      10.27124400       6.89534600      18.92911500       0.26660233       0.29884449       0.29953663
Pt       6.52876100      10.99175400      27.88152900      -0.09193237       0.13850688      -0.21772515
Pt       7.05638800       6.89534600      23.52715600       0.19823001       0.43496847       0.19381183
Pt       7.05638800       2.29844900      19.03163300      -0.17073463      -0.20165369      -0.57729498
Pt      11.75965300      13.49280400      25.63457000      -0.80707808      -0.53864821       0.28878633
Pt      11.83917500       9.07525400      21.06094900      -0.40709976       0.10609349      -0.27619204
Pt      11.56742100       4.59830200      25.53683900      -0.14399053      -0.10497249       0.10321334
Pt       8.70331400       0.11854100      21.49783900       6.10959257       8.00456362      -2.49558594
Pt       8.70331400       9.31233600      21.29280400      -0.33823173       0.03634152      -0.84574851
Pt       8.83878500       4.99051100      25.90708700       0.30988120      -0.19134048       0.06297301
Pt      10.43704900      12.61323000      19.92286200       0.90103032      -0.51740730      -0.10839926
Pt      10.52306700       8.04088400      24.73101800       0.00689621      -0.04672518      -0.03479834
Pt      10.43704900       3.41943500      20.12789800       0.33429486      -0.08400875       0.37679263
Pt       9.74771300      10.02145800      26.54040100      -0.07455583      -0.08358400      -0.18424424
Pt      10.10544000       5.77436100      22.43089100       0.04411396       0.06322909      -0.02829808
Pt      10.10544000       1.17746300      17.93536800       0.45300836       1.29040592      -0.69006666
S        5.06605100      11.29754300      25.34399400       0.03415608      -0.01570738      -0.25647630
S        5.08954400       6.74683700      20.87357900      -0.01879682      -0.02638878      -0.40130964
S        5.08954400       2.14994000      16.37805600      -0.83186506      -0.88274154       1.38323715
S        2.30561100       0.41668200      23.93521800       0.01231250       0.37218829       0.74303447
S        2.59352100       9.55157500      23.61646300       0.62422173      -0.52576081       0.12681145
S        2.59352100       4.95467700      19.12094100       0.01783780       0.68914055      -0.56845553
S        5.80303500       2.14612100      20.97236200      -0.30759292      -0.46884121      -0.25907774
S        5.80303500      11.33991600      20.76732600      -0.35146777       0.72779451      -1.19020797
S        6.05026300       6.83276400      25.64992900       0.10958402       0.12032764       0.09966008
S        1.88003000       0.36159800      19.22719400       0.30077590      -1.19221908      -0.54941548
S        1.88003000       9.55539400      19.02215800       0.56870492      -0.78649075       0.47398445
S        1.87426600       4.96082500      23.73694500       0.01539782      -0.03837012      -0.11427269
S        2.59352100       2.44695800      21.68521000       0.55505236       0.43239942       0.15238570
S        2.59352100      11.64075300      21.48017400       1.11709813      -1.38449288      -0.10579319
S        3.07356900       6.55145400      26.47088700       0.01694666       0.07218064      -0.03049586
S        5.08954400      13.43291300      23.23281200       0.28361841       0.04731653      -0.35052161
S        5.08954400       8.83601600      18.73728900      -0.34793250       0.39890669       0.15135417
S        5.08462400       4.12464400      23.48438800       0.04613279       0.16725233      -0.23026185
S        1.98174100      11.60732100      26.11255900       0.16968048      -0.24114173       0.17786122
S        1.88003000       7.04767400      21.58642700       0.08795436      -0.03077816       0.12061200
S        1.88003000       2.45077700      17.09090400       0.33344331      -0.22094931       0.44991789
S        5.56066700      13.11935200      27.96708700       0.37990829      -0.31039697      -1.43051614
S        5.80303500       8.83219700      23.33159500      -0.21961799      -0.07585989       0.23594398
S        5.80303500       4.23529900      18.83607300      -0.26736904       0.39380973      -0.47765495
S       11.40028100      11.21297600      25.42106600       0.20588110      -0.62428241      -0.43647411
S       11.51925600       6.74683700      20.87357900      -0.04119885       0.00615059      -0.47216462
S       11.51925600       2.14994000      16.37805600      -0.81065963      -0.90300801       1.41695151
S        8.74832000       0.42342300      23.92964800      -0.54329831       0.23188781       0.76125897
S        9.02323200       9.55157500      23.61646300       0.12165433      -0.51346322      -0.27032941
S        9.02323200       4.95467700      19.12094100       0.04220158       0.69619462      -0.54537062
S       12.23274700       2.14612100      20.97236200      -0.32859781      -0.47754954      -0.45924688
S       12.23274700      11.33991600      20.76732600      -0.27066468       0.60081183      -1.10628355
S       12.34526200       6.83396900      25.63318100       0.06093258      -0.12703205       0.02625662
S        8.30974200       0.36159800      19.22719400       0.36184012      -1.19370518      -0.56264020
S        8.30974200       9.55539400      19.02215800       0.57777732      -0.81130909       0.37911382
S        8.32030100       4.98476800      23.73678900       0.04874915       0.04214347      -0.11402638
S        9.02323200       2.44695800      21.68521000       0.40442222       0.30662002      -0.03101111
S        9.02323200      11.64075300      21.48017400       1.25007045      -1.33832769       0.02751543
S        9.24352300       7.22338100      26.47268700      -0.15532601      -0.09555249      -0.27985894
S       11.51925600      13.43291300      23.23281200      -1.75125974      -2.77764060      -0.97612145
S       11.51925600       8.83601600      18.73728900      -0.37282747       0.37802933       0.20525427
S       11.46979600       4.12720800      23.38304500      -0.01462084       0.11982730      -0.08205111
S        8.16557500      11.62815100      26.29195900      -0.48865670      -0.28175539       0.69870865
S        8.30974200       7.04767400      21.58642700      -0.08231902       0.16288454       0.08329089
S        8.30974200       2.45077700      17.09090400       0.30559775      -0.23089074       0.47198876
S       12.06153000      12.79668600      27.91217400       0.21913874       1.67565799      -1.28830224
S       12.23274700       8.83219700      23.33159500      -0.07110541       0.13184721      -0.61301532
S       12.23274700       4.23529900      18.83607300      -0.28185566       0.39702207      -0.42017537
C        1.92793500       8.46517800      29.13424200      -0.38826283       0.69678701       0.10167325
C        0.52797800       8.61838700      29.70113100       0.37612208       0.00870318      -0.23723314
C        4.32271900      10.61639100      31.13711500      -0.44393545       0.80433472       0.14232960
C        2.81365200      10.72136500      31.29602300       0.52653780      -0.15805241      -0.05511314
C       11.98859300       4.81015500      28.32246200       0.19858637       0.09877511       0.13550229
C       10.55367900       5.27222000      28.49809400       0.20210929       0.26061578       0.29691307
C        0.59881800       0.55963200      27.75668000       2.42686600      -0.78829360       2.55830903
C       12.11660300      13.77831400      31.62552900       0.01146558       1.11832763      -0.05114593
C        9.49919800       2.76556200      31.34425800       0.09867278       0.23403468      -0.44101210
C       10.32682100       4.07250500      31.37873200      -0.04485444      -0.31263486       0.42909915
C        8.95605000       2.62666300      29.89304000      -0.18510093      -0.38591747       0.32720735
C       10.99779300       4.61106600      32.66087500       0.15122047       0.23656671      -0.37951131
C        8.05376400       1.41418500      29.58641800       0.21550217       0.37721583      -0.08881465
C       11.79206600       5.89494900      32.27586200      -0.08095839      -0.33326796       0.20227796
C        9.45181300       8.89743200      33.89154800      -0.22572385      -0.03332458      -0.40796674
C        7.98669500       8.43681100      33.71467900       0.25075765      -0.00007816       0.36446984
C       10.05027700       9.54152400      32.62208200       0.27565005      -0.00228263       0.32797509
C        7.37469400       7.91895900      35.03634100      -0.29164282      -0.00440584      -0.33287612
C       11.50572900      10.01857500      32.84788500      -0.30616802      -0.10124337      -0.06927015
C        5.87674900       7.55675800      34.90199800       0.32421408       0.03694418       0.10011259
C        4.92554400      11.95888000      35.07401400       0.02220456      -0.36019718       0.20227641
C        6.14686200      11.32126800      35.77095200      -0.03641659       0.49604760      -0.07081641
C        3.67604900      11.05412700      35.01129800      -0.17222844       0.45061312      -0.10834887
C        7.29651300      12.34089500      35.93544400       0.03638266      -0.37293391       0.26816402
C        2.46106400      11.86590100      34.49593000       0.20344112      -0.18503614       0.16689803
C        8.51183900      11.79261900      36.71996900      -0.21936808       0.25539490      -0.07026980
C        5.72973500       3.85420600      32.85092200      -0.22853046      -0.14616311       0.32413386
C        4.31171300       3.24332700      32.82875600       0.17018442       0.12943140      -0.27069707
C        6.34220200       3.82090100      34.27027100       0.26629020       0.12062280      -0.29075734
C        3.68460200       3.19531100      31.41894100      -0.24498398      -0.13933683       0.25058436
C        7.79136500       4.35454700      34.31467400      -0.35011023      -0.14699564       0.16641518
C        2.28819500       2.52775000      31.42438800       0.28685492       0.16371346      -0.01241483
H        1.45034900      11.81033400      29.01823100       0.00439402       0.04653491       0.04256307
H        2.33466600       9.82263400      31.73943600      -0.10110761       0.00851498       0.01417346
H        1.84491000       7.61787600      28.43070300      -0.03833772      -0.30082938      -0.19261832
H        0.13983500       7.82707400      30.36981200       0.04062960       0.06602336      -0.08035881
H        4.42971900      12.35822600      30.24827900      -0.17195025       0.10679489      -0.19778470
H        4.76121600      10.17051100      32.04033800       0.06642703       0.02099563       0.07539144
H        4.47165400       9.89505300      30.31829500       0.18849581      -0.22328901      -0.27197286
H        2.62797600       8.11885100      29.91102800       0.05746622      -0.00803881       0.14095560
H        0.05465600       6.44375100      27.90268500      -0.07364668       0.24583450      -0.24810736
H       12.17329400       3.90435400      28.92057600       0.01970648       0.02999501       0.13663615
H       12.15143700       4.34912900      27.25986800      -0.03169862      -0.03775048       0.05811722
H        9.78979900       4.56577800      28.04035700      -0.03686037       0.12033432       0.01692814
H       12.74430600       2.29607900      27.32324100      -0.06223356       0.14074374      -0.41416413
H        0.90734100       0.07144800      28.69549000       1.09705998       1.24847534       0.07953760
H        1.33220800       0.26431300      26.98467400      -0.71052595      -0.04962847      -0.22956919
H       12.10286800      12.68217100      31.46980800      -0.01035692      -1.10959411      -0.14209203
H       10.11230200       1.89363700      31.62037200       0.05095773      -0.01949051      -0.02247813
H        8.65592200       2.80802100      32.04034200      -0.04252708      -0.04543860       0.09053523
H        9.67928200       4.87202300      31.00873200      -0.03162354       0.08394241      -0.07469518
H       11.12558800       3.94848800      30.63868400       0.04272402       0.05216152      -0.04107080
H        8.39073800       3.53915600      29.65549500       0.07467667       0.07632989      -0.04459373
H        9.80712800       2.57844400      29.20075700       0.08589491       0.07332170      -0.06010211
H       10.24511700       4.87799400      33.40800800      -0.04828584      -0.08438773       0.08384574
H       11.66926800       3.87165000      33.11691300      -0.05796141      -0.04601504       0.00105107
H        8.59083600       0.47569100      29.74731000      -0.02639032      -0.19105612       0.03605767
H        7.75981100       1.45097500      28.52329900      -0.05207204      -0.14079259       0.14645982
H        7.14148500       1.41213200      30.19536700      -0.01375592      -0.05712940       0.02911415
H       12.69336900       5.64125600      31.69574800      -0.04653337       0.03121371       0.03803022
H       11.16410500       6.53745400      31.64308600       0.03764815       0.09730855       0.03978680
H       12.09634300       6.47210000      33.16075600       0.04382497      -0.02224262      -0.05229881
H        9.50327500       9.62233200      34.71374100       0.03663977       0.01229502       0.09346732
H       10.07002900       8.03926600      34.19507000       0.01451491       0.02739408       0.02616612
H        7.93826800       7.64938900      32.94778800      -0.05535688       0.02443114      -0.03511973
H        7.38768400       9.27676500      33.33195400      -0.03975543      -0.01049267      -0.02340475
H       10.02059600       8.82470600      31.79015800      -0.04843085       0.00631823      -0.04193881
H        9.43235600      10.39923300      32.31946500      -0.03353644      -0.07063438      -0.05438552
H        7.93753400       7.04218300      35.38012000       0.03474692      -0.00764286       0.02400279
H        7.49200300       8.68361800      35.81553000       0.05055252      -0.00493960       0.02860918
H       11.54415400      10.82587400      33.59528400       0.05628659      -0.05880730      -0.04155674
H       11.94080500      10.39443600      31.91185700       0.08365856       0.03447284       0.03459111
H       12.13695400       9.19488100      33.21500300       0.00867747       0.06031140      -0.03230643
H        5.28353000       8.44219300      34.63332300      -0.01425317      -0.02326231       0.00371164
H        5.71838900       6.79805400      34.12292400      -0.01411587      -0.00567802       0.02398634
H        5.47919100       7.16321400      35.85018800      -0.02989833       0.00706488      -0.10200030
H        4.65621400      12.89106200      35.59451400       0.02690660      -0.01087782      -0.04088311
H        5.19909800      12.24514100      34.04861800       0.00744180       0.11719655      -0.01863073
H        6.50391100      10.47307200      35.17891300      -0.00047617      -0.13695445       0.02243648
H        5.85685600      10.92760300      36.75598400       0.00177869      -0.03847605      -0.03729848
H        3.86141800      10.19479800      34.35137900       0.04252554      -0.04029742       0.05725333
H        3.44789900      10.64374200      36.00525300       0.07632989      -0.06975403      -0.04536146
H        7.61654600      12.65741800      34.93904900       0.06622699       0.18053105      -0.13495773
H        6.91097300      13.23667600      36.44309500       0.00076156       0.01333683      -0.04781532
H        2.12455300      12.57597100      35.26681200      -0.01961598      -0.03041461      -0.09986628
H        1.60866800      11.22390300      34.22859200      -0.00035173       0.07871484      -0.00067414
H        2.75097200      12.45363200      33.61471300      -0.13556348      -0.00576236      -0.05723945
H        8.20233900      11.36946900      37.68769700       0.05807711       0.03641557      -0.06303266
H        9.03183300      11.00594000      36.15996100      -0.00044274      -0.07971963       0.00884254
H        9.24234800      12.59382400      36.91748400      -0.03752217      -0.11341137       0.01748813
H        6.37299000       3.30351800      32.14958900       0.05161747       0.02938411      -0.02312553
H        5.69289800       4.89288100      32.48689600       0.06531220      -0.03400541      -0.01527750
H        3.65809300       3.81899600      33.50304500       0.00566260      -0.09537251      -0.00383094
H        4.35962900       2.22233200      33.23719200      -0.06765756       0.02791447       0.02590130
H        5.70854700       4.40866200      34.94741200      -0.04202366      -0.03138546       0.03231106
H        6.33188300       2.78627300      34.64285600      -0.08847475       0.03601036       0.04879903
H        3.60432200       4.21505800      31.01390400       0.06576625      -0.04822104      -0.03328962
H        4.35067100       2.64102300      30.74205500       0.02806874       0.06599765      -0.02510014
H        8.47937300       3.64225800      33.84939200       0.04523548       0.00180029      -0.00675583
H        8.13026300       4.51518900      35.34953000       0.00576596       0.01424340      -0.08006827
H        7.88049000       5.30484000      33.77379000       0.03031228       0.04307421       0.00768708
H        2.35401100       1.49970100      31.81240300      -0.09234838       0.03500043      -0.04444718
H        1.59048100       3.08364300      32.07010600      -0.01508878      -0.08804846      -0.07051817
H        1.86505300       2.48840600      30.41004200      -0.08364776      -0.04168941       0.04485033
O        2.36541700       9.64060400      28.49027200       0.28635766      -0.28315921      -0.03352873
O       12.62170800       9.55172100      29.38559700       0.32500958       0.13557428      -0.00465370
O        4.96407600      11.87015900      30.89491200       0.03388817      -0.73188514       0.26054482
O        2.15305200      11.68398200      30.92805100      -0.14395196       0.26367436       0.03725169
O        0.12091800       5.76083100      28.59625300      -0.10981182      -0.55763992       0.25333904
O       10.24824900       6.29774500      29.07761100       0.09768187      -0.14268235      -0.24453507
O        0.56471600       1.97617200      27.94535500      -1.15047465      -1.99969106      -0.07052228
O       11.12181800       0.69108500      27.15019900      -1.02977574       0.95331987       0.34520302
F        6.17100700       8.87125900      28.63913400      -0.27020394       0.62583381      -0.32926115
209
Lattice="12.859 0.0 0.0 0.0 13.791 0.0 0.0 0.0 49.295" Properties=species:S:1:pos:R:3:REF_forces:R:3 system_type=oc25_pt REF_energy=-180595.79137396207 al_round=5 source=cp2k_sp REF_stress="0.001158941468203936 0.0009877636279271816 0.0009009915757827736 0.0003337238283815841 -0.001309175250879361 0.002232620799099733" _cp2k_dir=cp2k_sp_round5 orig_idx=839 pbc="T T T"
Pt       0.09894700       1.07075500      23.69672100       2.18786857       3.82146897       1.38222465
Pt       0.62667700      10.34302000      24.59977700       0.04750679       0.22007513       0.64882102
Pt       0.62667700       5.74612200      20.10425500       0.19029199      -0.85680322       0.49436147
Pt       0.62667700       3.44767300      22.45453400      -0.17060659       0.23605351      -0.46188535
Pt       0.62667700      12.64146800      22.24949800      -8.45738943      -6.44877407       2.49244353
Pt       1.50642600       8.05019700      25.85430500      -0.20235458       0.01936504      -0.16617864
Pt       3.77785000       2.26807100      23.78450700       0.23557580      -0.21536539      -0.02190940
Pt       3.84153200      11.49224400      23.42463800      -0.31414666      -0.44776485       0.52122179
Pt       3.84153200       6.89534600      18.92911500       0.31333522       0.30301019       0.37789049
Pt       0.73319200      11.01955800      27.90560500      -0.15988818      -0.29952480       0.24974772
Pt       0.62667700       6.89534600      23.52715600      -0.06078654       0.02008803       0.49672226
Pt       0.62667700       2.29844900      19.03163300      -0.14648193      -0.22445938      -0.62589809
Pt       5.37146900      13.59892300      25.62560000      -0.41748136      -1.39594457       2.14366565
Pt       5.40946300       9.07525400      21.06094900      -0.49522742       0.02993844      -0.18952117
Pt       5.99334700       4.45337000      25.56868100      -0.04013955       0.31239574       0.18220072
Pt       2.27360200       0.11854100      21.49783900       6.41971598       8.09052744      -2.48284149
Pt       2.27360200       9.31233600      21.29280400      -0.23968391      -0.03207349      -0.84892279
Pt       3.28607100       4.55011400      25.44927500      -0.07999577      -0.14126825      -0.00881580
Pt       4.00733700      12.61323000      19.92286200       0.94181984      -0.51337272      -0.07467564
Pt       4.14322300       7.95627500      24.84984600       0.00663499       0.15190953      -0.12933010
Pt       4.00733700       3.41943500      20.12789800       0.35051286      -0.06479232       0.51322823
Pt       3.88817000      10.27697000      26.88752900      -0.62110864      -0.00161825      -0.16828951
Pt       3.67572800       5.77436100      22.43089100      -0.04177889      -0.01181628      -0.05021056
Pt       3.67572800       1.17746300      17.93536800       0.47842474       1.27487234      -0.63681551
Pt       6.61155100       1.27650000      24.07156900       0.75738997       1.89563234      -0.56249931
Pt       7.05638800      10.34302000      24.59977700      -0.05907984       0.32431486       0.34164256
Pt       7.05638800       5.74612200      20.10425500       0.17722564      -0.84407009       0.44858349
Pt       7.05638800       3.44767300      22.45453400      -0.07881460      -0.13362590      -0.30439447
Pt       7.05638800      12.64146800      22.24949800      -8.42157705      -5.74501526       3.18921357
Pt       7.47696300       8.49237400      26.76777900      -0.60232004      -0.02793350       0.37580326
Pt      10.18584700       2.24933200      23.70413000       0.31707412      -0.07679834      -0.04436027
Pt      10.27124400      11.49224400      23.42463800      -0.43580562      -0.58377056       0.48375361
Pt      10.27124400       6.89534600      18.92911500       0.26650823       0.29873444       0.29967598
Pt       6.53089900      10.99286200      27.88172800      -0.10397336       0.13227864      -0.21056411
Pt       7.05638800       6.89534600      23.52715600       0.19997888       0.43799260       0.19196680
Pt       7.05638800       2.29844900      19.03163300      -0.17055363      -0.20144646      -0.57727287
Pt      11.76041200      13.49348600      25.63334900      -0.81236684      -0.52828255       0.31039080
Pt      11.83917500       9.07525400      21.06094900      -0.40655777       0.10626422      -0.27580688
Pt      11.56819500       4.59839900      25.53795100      -0.14434688      -0.11235413       0.07136612
Pt       8.70331400       0.11854100      21.49783900       6.10956738       8.00351050      -2.49693936
Pt       8.70331400       9.31233600      21.29280400      -0.33769848       0.03590186      -0.84549088
Pt       8.84033000       4.99046400      25.90588400       0.30179508      -0.18387966       0.06648153
Pt      10.43704900      12.61323000      19.92286200       0.90099843      -0.51750088      -0.10799354
Pt      10.52183700       8.04076400      24.73157400       0.02568069      -0.04534038      -0.03815620
Pt      10.43704900       3.41943500      20.12789800       0.33479057      -0.08393264       0.37726571
Pt       9.74808500      10.02243000      26.53964400      -0.06977975      -0.09351566      -0.17783602
Pt      10.10544000       5.77436100      22.43089100       0.04398644       0.06965222      -0.03442913
Pt      10.10544000       1.17746300      17.93536800       0.45299807       1.29021720      -0.69030217
S        5.06599300      11.29671800      25.34354700       0.04603509       0.01904673      -0.28220636
S        5.08954400       6.74683700      20.87357900      -0.01886727      -0.02586581      -0.40183620
S        5.08954400       2.14994000      16.37805600      -0.83182495      -0.88271789       1.38324126
S        2.30576100       0.41626800      23.93533000       0.01945245       0.37510392       0.74133189
S        2.59352100       9.55157500      23.61646300       0.62400781      -0.52829026       0.12570176
S        2.59352100       4.95467700      19.12094100       0.01774421       0.68908295      -0.56865813
S        5.80303500       2.14612100      20.97236200      -0.30710287      -0.46867923      -0.25846274
S        5.80303500      11.33991600      20.76732600      -0.35147651       0.72745667      -1.19018483
S        6.05106800       6.83377000      25.65051300       0.09973773       0.10642928       0.09594175
S        1.88003000       0.36159800      19.22719400       0.30062009      -1.19222988      -0.54940776
S        1.88003000       9.55539400      19.02215800       0.56892964      -0.78667895       0.47383121
S        1.87402900       4.96080900      23.73685900       0.01595164      -0.03678220      -0.11692350
S        2.59352100       2.44695800      21.68521000       0.55404963       0.43248941       0.15135468
S        2.59352100      11.64075300      21.48017400       1.11690375      -1.38442243      -0.10646939
S        3.07312800       6.55243400      26.47046200       0.02744241       0.05763385      -0.02989113
S        5.08954400      13.43291300      23.23281200       0.28077014       0.04526582      -0.35579237
S        5.08954400       8.83601600      18.73728900      -0.34794536       0.39897096       0.15117779
S        5.08533600       4.12534800      23.48387500       0.03563446       0.15692472      -0.22601953
S        1.98148100      11.60736500      26.11365200       0.17425704      -0.23251002       0.15683782
S        1.88003000       7.04767400      21.58642700       0.08800373      -0.03037810       0.12066188
S        1.88003000       2.45077700      17.09090400       0.33330293      -0.22098273       0.45013386
S        5.56092400      13.11866100      27.96564200       0.38021425      -0.29911651      -1.42666051
S        5.80303500       8.83219700      23.33159500      -0.21488613      -0.07486487       0.22903440
S        5.80303500       4.23529900      18.83607300      -0.26761432       0.39367912      -0.47743692
S       11.40118600      11.21400400      25.42044000       0.19679739      -0.62917316      -0.43276195
S       11.51925600       6.74683700      20.87357900      -0.03981508       0.00745671      -0.47352885
S       11.51925600       2.14994000      16.37805600      -0.81071260      -0.90291956       1.41693609
S        8.74868400       0.42318300      23.92932200      -0.54395085       0.22883848       0.76441474
S        9.02323200       9.55157500      23.61646300       0.12038677      -0.51119911      -0.27022245
S        9.02323200       4.95467700      19.12094100       0.04208228       0.69616891      -0.54553157
S       12.23274700       2.14612100      20.97236200      -0.32891354      -0.47942027      -0.45905199
S       12.23274700      11.33991600      20.76732600      -0.27009801       0.60091725      -1.10673041
S       12.34614500       6.83323600      25.63331900       0.03964590      -0.12363768       0.02326540
S        8.30974200       0.36159800      19.22719400       0.36155472      -1.19366970      -0.56299347
S        8.30974200       9.55539400      19.02215800       0.57775983      -0.81108489       0.37925111
S        8.32061600       4.98535600      23.73619100       0.04522571       0.03496443      -0.10890063
S        9.02323200       2.44695800      21.68521000       0.40234888       0.30569442      -0.03306850
S        9.02323200      11.64075300      21.48017400       1.24955006      -1.33866142       0.02719867
S        9.23985100       7.22511300      26.47194300      -0.07894316      -0.15443384      -0.29002046
S       11.51925600      13.43291300      23.23281200      -1.73181963      -2.75645368      -0.97365627
S       11.51925600       8.83601600      18.73728900      -0.37305424       0.37800979       0.20541676
S       11.46991800       4.12786400      23.38187000      -0.02078274       0.11034867      -0.04657502
S        8.16448600      11.62663900      26.29260800      -0.47797428      -0.26192961       0.69013351
S        8.30974200       7.04767400      21.58642700      -0.08398509       0.16340750       0.08110288
S        8.30974200       2.45077700      17.09090400       0.30568928      -0.23098690       0.47190699
S       12.06140400      12.79602800      27.91257900       0.21364275       1.69357961      -1.29522468
S       12.23274700       8.83219700      23.33159500      -0.07690119       0.12794325      -0.60700202
S       12.23274700       4.23529900      18.83607300      -0.28192868       0.39699996      -0.42041139
C        1.92906000       8.46442000      29.13334200      -0.45041257       0.76875013       0.12403003
C        0.52799700       8.61826400      29.70066700       0.40276026       0.00464187      -0.23665515
C        4.32295700      10.61462700      31.13651900      -0.47658332       0.91053003       0.17683637
C        2.81232200      10.72138800      31.29693000       0.60299778      -0.16584645      -0.08539508
C       11.98852300       4.80983000      28.32316200       0.22050965       0.09759497       0.12729173
C       10.55397200       5.27215500      28.49793600       0.21426033       0.27452390       0.31289402
C        0.59908800       0.55923900      27.75646200       2.39910014      -0.75481012       2.55669283
C       12.11660900      13.77764200      31.62556700       0.01209447       1.15832474      -0.04650612
C        9.49925400       2.76545400      31.34511300       0.10502083       0.26051756      -0.49938540
C       10.32688200       4.07322500      31.37811000      -0.04662747      -0.35704244       0.48379835
C        8.95645900       2.62747700      29.89235400      -0.20901425      -0.44241952       0.36771560
C       10.99754300       4.61040700      32.66150500       0.16362656       0.27729812      -0.43256860
C        8.05316100       1.41300300      29.58651600       0.24319552       0.43630801      -0.10777294
C       11.79221400       5.89527700      32.27572700      -0.09149323      -0.36478403       0.22192993
C        9.45224700       8.89734600      33.89226400      -0.25847662      -0.03005003      -0.46685683
C        7.98616600       8.43688700      33.71388900       0.28703489      -0.00341237       0.42080940
C       10.04975800       9.54150700      32.62140100       0.31626474      -0.00460433       0.37751099
C        7.37531500       7.91893400      35.03687400      -0.33396216      -0.00384277      -0.37770537
C       11.50633900      10.01871000      32.84796800      -0.34282012      -0.10887440      -0.08435996
C        5.87624100       7.55663400      34.90174800       0.35824674       0.04287880       0.11240967
C        4.92552400      11.95968600      35.07355100       0.02383824      -0.41953053       0.23116019
C        6.14656900      11.32032700      35.77118200      -0.02867346       0.56534243      -0.08909850
C        3.67644600      11.05354200      35.01163300      -0.19445100       0.50995932      -0.13053697
C        7.29634100      12.34169000      35.93496200       0.04429497      -0.43731228       0.30302664
C        2.46052500      11.86639500      34.49560500       0.22847750      -0.21196999       0.18517703
C        8.51226700      11.79230000      36.72021600      -0.24351845       0.28532048      -0.08527836
C        5.73014400       3.85446300      32.85023400      -0.25883812      -0.16960129       0.37520420
C        4.31132200       3.24299600      32.82935400       0.19892678       0.15379260      -0.32222867
C        6.34157400       3.82060700      34.27084300       0.30765566       0.14388100      -0.33446095
C        3.68511100       3.19564100      31.41832800      -0.28360196      -0.16476247       0.29605432
C        7.79188500       4.35484600      34.31449700      -0.38700556      -0.16585159       0.18227734
C        2.28766000       2.52749900      31.42440600       0.31902919       0.18249332      -0.02434218
H        1.45062000      11.81135800      29.01801200       0.00125264       0.04240007       0.03746149
H        2.33498600       9.82237500      31.73912200      -0.12751747      -0.00659848       0.03053699
H        1.84441100       7.61860800      28.43179100      -0.03340120      -0.34930856      -0.23592187
H        0.14020100       7.82730000      30.36952400       0.03554088       0.05884279      -0.07586658
H        4.42998600      12.35811200      30.24864000      -0.19891444       0.12530786      -0.22693278
H        4.76102400      10.17107700      32.04014200       0.07794917       0.00758218       0.09151688
H        4.47209400       9.89573800      30.31872900       0.19587591      -0.26650772      -0.31905696
H        2.62699800       8.11973600      29.91047200       0.09274021      -0.02698682       0.17301983
H        0.05471000       6.44379100      27.90287400      -0.08008987       0.26901300      -0.27668672
H       12.17345800       3.90327000      28.92151100       0.01943908       0.05332160       0.12168981
H       12.15121700       4.34891600      27.25936400      -0.02967156      -0.03625307       0.07692998
H        9.79045700       4.56707700      28.04121500      -0.05629585       0.09633461       0.00104901
H       12.74444200       2.29604200      27.32324400      -0.07635457       0.14598468      -0.42757500
H        0.90723100       0.07193500      28.69495800       1.10168436       1.23817910       0.09711109
H        1.33211500       0.26422800      26.98492800      -0.69827105      -0.05370006      -0.24457004
H       12.10270100      12.68271700      31.46975000      -0.01082743      -1.15041654      -0.14771452
H       10.11216800       1.89367900      31.61998400       0.06029649      -0.02879276      -0.01551198
H        8.65595800       2.80787700      32.04019400      -0.05506481      -0.04357095       0.10309970
H        9.67941000       4.87174700      31.00874800      -0.04761992       0.10698361      -0.08406634
H       11.12543500       3.94861400      30.63897200       0.05670157       0.05096184      -0.05491105
H        8.39101600       3.53931800      29.65558300       0.06504737       0.08980555      -0.05085848
H        9.80739900       2.57870400      29.20078800       0.09560854       0.07225212      -0.07008159
H       10.24529400       4.87783800      33.40776600      -0.06441797      -0.08144227       0.10094100
H       11.66917200       3.87172500      33.11666400      -0.04647886      -0.06298843       0.01049730
H        8.59115100       0.47553800      29.74742100      -0.02353845      -0.20254329       0.03769392
H        7.75959700       1.45095800      28.52297500      -0.05248753      -0.14801842       0.15813931
H        7.14141700       1.41221900      30.19569800      -0.02048192      -0.06080299       0.03291784
H       12.69310000       5.64118800      31.69588900      -0.03684597       0.02914140       0.03175518
H       11.16446600       6.53753000      31.64352100       0.02632090       0.10608012       0.02901182
H       12.09633300       6.47174000      33.16060700       0.04917184      -0.01344224      -0.04272711
H        9.50324400       9.62222100      34.71351900       0.03838606       0.02510631       0.10994655
H       10.06998100       8.03930400      34.19485400       0.02387012       0.01448868       0.03266484
H        7.93826200       7.64944300      32.94792400      -0.05724870       0.01306018      -0.04920938
H        7.38770300       9.27680600      33.33213500      -0.04974108       0.00221629      -0.03142403
H       10.02065100       8.82472100      31.79029700      -0.05098909      -0.00561889      -0.05661364
H        9.43245000      10.39901800      32.31953900      -0.04599910      -0.05572198      -0.06105033
H        7.93743200       7.04214800      35.37991200       0.04551007      -0.01960466       0.03011122
H        7.49199800       8.68355800      35.81535700       0.05444517       0.00577007       0.04093711
H       11.54406100      10.82571900      33.59516900       0.05804266      -0.05106211      -0.03442090
H       11.94075700      10.39444100      31.91189700       0.09053626       0.03793046       0.02922008
H       12.13681200       9.19488700      33.21486200       0.01615013       0.05239497      -0.02842252
H        5.28371000       8.44229300      34.63335700      -0.01914238      -0.01932853       0.00079293
H        5.71859800       6.79789700      34.12292900      -0.01659956      -0.00906468       0.01837568
H        5.47934400       7.16323500      35.84998100      -0.03666548       0.00381757      -0.09648425
H        4.65629700      12.89073800      35.59455900       0.02213206       0.00808149      -0.03252909
H        5.19916400      12.24529600      34.04880200       0.01228782       0.12310391      -0.03865500
H        6.50375400      10.47324400      35.17897700       0.00529442      -0.15500411       0.01222200
H        5.85674700      10.92769300      36.75601100      -0.00312338      -0.04541494      -0.02378425
H        3.86141000      10.19526900      34.35157600       0.04805906      -0.06011754       0.04402295
H        3.44807100      10.64369200      36.00511200       0.07455120      -0.07507468      -0.02984537
H        7.61658500      12.65745200      34.93934900       0.07151113       0.18810089      -0.15990412
H        6.91109200      13.23647400      36.44299500      -0.00787323       0.03119571      -0.03964539
H        2.12458200      12.57607400      35.26697700      -0.02194797      -0.02840092      -0.10149996
H        1.60873300      11.22378200      34.22855100      -0.00722634       0.07895138      -0.00179617
H        2.75076500      12.45344500      33.61435300      -0.13371897      -0.00055896      -0.06075723
H        8.20226800      11.36957300      37.68766200       0.05657559       0.03342537      -0.05655913
H        9.03147200      11.00586600      36.15998000       0.00757653      -0.08781706       0.00355275
H        9.24225400      12.59406000      36.91744100      -0.03403884      -0.11775808       0.01896909
H        6.37300000       3.30342100      32.14974100       0.06109147       0.02274964      -0.03435303
H        5.69291400       4.89275800      32.48710600       0.06530243      -0.01808206      -0.02330140
H        3.65814200       3.81890800      33.50284000      -0.00446035      -0.08709613       0.00765366
H        4.35955500       2.22246500      33.23698600      -0.06700244       0.00962158       0.03434686
H        5.70855700       4.40868100      34.94724900      -0.05406208      -0.02278358       0.04405894
H        6.33170500       2.78641800      34.64278000      -0.08952479       0.01936606       0.05571530
H        3.60431100       4.21486800      31.01403000       0.06630567      -0.02915271      -0.04157988
H        4.35054800       2.64109000      30.74222800       0.04189716       0.05695765      -0.03869099
H        8.47921500       3.64220900      33.84954700       0.05228801      -0.00294237      -0.01160853
H        8.13001700       4.51516100      35.34944800       0.01185330       0.01694151      -0.07558735
H        7.88036000       5.30482700      33.77390500       0.03219638       0.05386873       0.00030082
H        2.35403900       1.49987000      31.81225500      -0.09256589       0.02382590      -0.04003054
H        1.59058600       3.08365400      32.06997600      -0.02200247      -0.08362617      -0.06449664
H        1.86505900       2.48844000      30.41006700      -0.08943634      -0.04361980       0.03950706
O        2.36557400       9.64058600      28.49067700       0.29101753      -0.27092796      -0.05467091
O       12.62242100       9.55195300      29.38608500       0.31560242       0.14214293      -0.00638096
O        4.96416200      11.87062000      30.89445200       0.04652617      -0.79126683       0.30081241
O        2.15348400      11.68433700      30.92826600      -0.16832551       0.27855848       0.04187813
O        0.12106100       5.76155300      28.59592600      -0.11822293      -0.60707967       0.28298746
O       10.24831600       6.29738200      29.07781100       0.09868306      -0.13083676      -0.24457775
O        0.56448000       1.97641600      27.94518800      -1.12832716      -2.01846577      -0.06057571
O       11.12196800       0.69122500      27.15002000      -1.02494207       0.94117449       0.33716575
F        6.16971100       8.87416800      28.63900900      -0.28594834       0.66398744      -0.33819214
